 Entering Gaussian System, Link 0=g09
 Initial command:
 /usr/local/g09/l1.exe "/work/nakano/Gau-18829.inp" -scrdir="/work/nakano/"
 Entering Link 1 = /usr/local/g09/l1.exe PID=     18830.
  
 Copyright (c) 1988,1990,1992,1993,1995,1998,2003,2009,2013,
            Gaussian, Inc.  All Rights Reserved.
  
 This is part of the Gaussian(R) 09 program.  It is based on
 the Gaussian(R) 03 system (copyright 2003, Gaussian, Inc.),
 the Gaussian(R) 98 system (copyright 1998, Gaussian, Inc.),
 the Gaussian(R) 94 system (copyright 1995, Gaussian, Inc.),
 the Gaussian 92(TM) system (copyright 1992, Gaussian, Inc.),
 the Gaussian 90(TM) system (copyright 1990, Gaussian, Inc.),
 the Gaussian 88(TM) system (copyright 1988, Gaussian, Inc.),
 the Gaussian 86(TM) system (copyright 1986, Carnegie Mellon
 University), and the Gaussian 82(TM) system (copyright 1983,
 Carnegie Mellon University). Gaussian is a federally registered
 trademark of Gaussian, Inc.
  
 This software contains proprietary and confidential information,
 including trade secrets, belonging to Gaussian, Inc.
  
 This software is provided under written license and may be
 used, copied, transmitted, or stored only in accord with that
 written license.
  
 The following legend is applicable only to US Government
 contracts under FAR:
  
                    RESTRICTED RIGHTS LEGEND
  
 Use, reproduction and disclosure by the US Government is
 subject to restrictions as set forth in subparagraphs (a)
 and (c) of the Commercial Computer Software - Restricted
 Rights clause in FAR 52.227-19.
  
 Gaussian, Inc.
 340 Quinnipiac St., Bldg. 40, Wallingford CT 06492
  
  
 ---------------------------------------------------------------
 Warning -- This program may not be used in any manner that
 competes with the business of Gaussian, Inc. or will provide
 assistance to any competitor of Gaussian, Inc.  The licensee
 of this program is prohibited from giving any competitor of
 Gaussian, Inc. access to this program.  By using this program,
 the user acknowledges that Gaussian, Inc. is engaged in the
 business of creating and licensing software in the field of
 computational chemistry and represents and warrants to the
 licensee that it is not a competitor of Gaussian, Inc. and that
 it will not use this program in any manner prohibited above.
 ---------------------------------------------------------------
  

 Cite this work as:
 Gaussian 09, Revision D.01,
 M. J. Frisch, G. W. Trucks, H. B. Schlegel, G. E. Scuseria, 
 M. A. Robb, J. R. Cheeseman, G. Scalmani, V. Barone, B. Mennucci, 
 G. A. Petersson, H. Nakatsuji, M. Caricato, X. Li, H. P. Hratchian, 
 A. F. Izmaylov, J. Bloino, G. Zheng, J. L. Sonnenberg, M. Hada, 
 M. Ehara, K. Toyota, R. Fukuda, J. Hasegawa, M. Ishida, T. Nakajima, 
 Y. Honda, O. Kitao, H. Nakai, T. Vreven, J. A. Montgomery, Jr., 
 J. E. Peralta, F. Ogliaro, M. Bearpark, J. J. Heyd, E. Brothers, 
 K. N. Kudin, V. N. Staroverov, T. Keith, R. Kobayashi, J. Normand, 
 K. Raghavachari, A. Rendell, J. C. Burant, S. S. Iyengar, J. Tomasi, 
 M. Cossi, N. Rega, J. M. Millam, M. Klene, J. E. Knox, J. B. Cross, 
 V. Bakken, C. Adamo, J. Jaramillo, R. Gomperts, R. E. Stratmann, 
 O. Yazyev, A. J. Austin, R. Cammi, C. Pomelli, J. W. Ochterski, 
 R. L. Martin, K. Morokuma, V. G. Zakrzewski, G. A. Voth, 
 P. Salvador, J. J. Dannenberg, S. Dapprich, A. D. Daniels, 
 O. Farkas, J. B. Foresman, J. V. Ortiz, J. Cioslowski, 
 and D. J. Fox, Gaussian, Inc., Wallingford CT, 2013.
 
 ****************************************************
 Gaussian 09:  i7a2_14.0.4.211-G09RevD.01 24-Apr-2013
                     21-Aug-2015 
 ****************************************************
 %mem=12000MB
 %nproc=4
 Will use up to    4 processors via shared memory.
 %chk=rhf
 -------------------------------------------------------------
 # HF/6-31G(d) iop(6/33=2,6/42=6,6/50=1) Pop=MK SCF=Tight Test
 -------------------------------------------------------------
 1/38=1/1;
 2/12=2,17=6,18=5,40=1/2;
 3/5=1,6=6,7=1,11=9,16=1,25=1,30=1/1,2,3;
 4//1;
 5/5=2,32=2,38=5/2;
 6/7=2,8=2,9=2,10=2,15=8,20=1,28=1,33=2,42=6,50=1/1,2;
 99/5=1,9=1/99;
 --------------
 PNA parameters
 --------------
 Symbolic Z-matrix:
 Charge =  0 Multiplicity = 1
 6                    0     0.        1.20532  -0.02424 
 6                    0     0.       -1.20532  -0.02424 
 6                    0     0.        1.20705   1.3503 
 6                    0     0.       -1.20705   1.3503 
 6                    0     0.        0.        2.06329 
 6                    0     0.        0.       -0.71041 
 1                    0     0.        2.12711  -0.57036 
 1                    0     0.       -2.12711  -0.57036 
 1                    0     0.        2.14039   1.88397 
 1                    0     0.       -2.14039   1.88397 
 7                    0     0.        0.       -2.15314 
 7                    0     0.        0.        3.42281 
 1                    0     0.        0.8485    3.93699 
 1                    0     0.       -0.8485    3.93699 
 8                    0     0.        1.05739  -2.71368 
 8                    0     0.       -1.05739  -2.71368 
 
                          Input orientation:                          
 ---------------------------------------------------------------------
 Center     Atomic      Atomic             Coordinates (Angstroms)
 Number     Number       Type             X           Y           Z
 ---------------------------------------------------------------------
      1          6           0        0.000000    1.205317   -0.024240
      2          6           0        0.000000   -1.205317   -0.024240
      3          6           0        0.000000    1.207054    1.350298
      4          6           0        0.000000   -1.207054    1.350298
      5          6           0        0.000000    0.000000    2.063290
      6          6           0        0.000000    0.000000   -0.710407
      7          1           0        0.000000    2.127106   -0.570359
      8          1           0        0.000000   -2.127106   -0.570359
      9          1           0        0.000000    2.140389    1.883969
     10          1           0        0.000000   -2.140389    1.883969
     11          7           0        0.000000    0.000000   -2.153144
     12          7           0        0.000000    0.000000    3.422806
     13          1           0        0.000000    0.848501    3.936990
     14          1           0        0.000000   -0.848501    3.936990
     15          8           0        0.000000    1.057387   -2.713677
     16          8           0        0.000000   -1.057387   -2.713677
 ---------------------------------------------------------------------
                    Distance matrix (angstroms):
                    1          2          3          4          5
     1  C    0.000000
     2  C    2.410634   0.000000
     3  C    1.374539   2.776489   0.000000
     4  C    2.776489   1.374539   2.414108   0.000000
     5  C    2.410513   2.410513   1.401905   1.401905   0.000000
     6  C    1.386944   1.386944   2.388197   2.388197   2.773697
     7  H    1.071420   3.376876   2.129652   3.847798   3.385364
     8  H    3.376876   1.071420   3.847798   2.129652   3.385364
     9  H    2.124999   3.851624   1.075137   3.389717   2.147888
    10  H    3.851624   2.124999   3.389717   1.075137   2.147888
    11  N    2.446430   2.446430   3.705548   3.705548   4.216434
    12  N    3.651700   3.651700   2.398389   2.398389   1.359516
    13  H    3.977268   4.462008   2.611424   3.303980   2.056868
    14  H    4.462008   3.977268   3.303980   2.611424   2.056868
    15  O    2.693502   3.514669   4.066730   4.652267   4.892595
    16  O    3.514669   2.693502   4.652267   4.066730   4.892595
                    6          7          8          9         10
     6  C    0.000000
     7  H    2.131711   0.000000
     8  H    2.131711   4.254212   0.000000
     9  H    3.363339   2.454364   4.922930   0.000000
    10  H    3.363339   4.922930   2.454364   4.280778   0.000000
    11  N    1.442737   2.651375   2.651375   4.569414   4.569414
    12  N    4.133213   4.524373   4.524373   2.636150   2.636150
    13  H    4.724220   4.685192   5.400966   2.425669   3.626067
    14  H    4.724220   5.400966   4.685192   3.626067   2.425669
    15  O    2.265206   2.395435   3.838594   4.723478   5.600368
    16  O    2.265206   3.838594   2.395435   5.600368   4.723478
                   11         12         13         14         15
    11  N    0.000000
    12  N    5.575950   0.000000
    13  H    6.148958   0.992139   0.000000
    14  H    6.148958   0.992139   1.697002   0.000000
    15  O    1.196773   6.226917   6.653947   6.918365   0.000000
    16  O    1.196773   6.226917   6.918365   6.653947   2.114774
                   16
    16  O    0.000000
 Stoichiometry    C6H6N2O2
 Framework group  C2V[C2(NCCN),SGV(C4H6O2)]
 Deg. of freedom    15
 Full point group                 C2V     NOp   4
 Largest Abelian subgroup         C2V     NOp   4
 Largest concise Abelian subgroup C2      NOp   2
                         Standard orientation:                         
 ---------------------------------------------------------------------
 Center     Atomic      Atomic             Coordinates (Angstroms)
 Number     Number       Type             X           Y           Z
 ---------------------------------------------------------------------
      1          6           0       -0.000000    1.205317   -0.024240
      2          6           0       -0.000000   -1.205317   -0.024240
      3          6           0        0.000000    1.207054    1.350298
      4          6           0       -0.000000   -1.207054    1.350298
      5          6           0        0.000000   -0.000000    2.063290
      6          6           0        0.000000    0.000000   -0.710407
      7          1           0       -0.000000    2.127106   -0.570359
      8          1           0       -0.000000   -2.127106   -0.570359
      9          1           0        0.000000    2.140389    1.883969
     10          1           0       -0.000000   -2.140389    1.883969
     11          7           0        0.000000    0.000000   -2.153144
     12          7           0        0.000000   -0.000000    3.422806
     13          1           0       -0.000000    0.848501    3.936990
     14          1           0       -0.000000   -0.848501    3.936990
     15          8           0        0.000000    1.057387   -2.713677
     16          8           0       -0.000000   -1.057387   -2.713677
 ---------------------------------------------------------------------
 Rotational constants (GHZ):      4.0299236      0.8370892      0.6931162
 Standard basis: 6-31G(d) (6D, 7F)
 There are    71 symmetry adapted cartesian basis functions of A1  symmetry.
 There are    16 symmetry adapted cartesian basis functions of A2  symmetry.
 There are    24 symmetry adapted cartesian basis functions of B1  symmetry.
 There are    51 symmetry adapted cartesian basis functions of B2  symmetry.
 There are    71 symmetry adapted basis functions of A1  symmetry.
 There are    16 symmetry adapted basis functions of A2  symmetry.
 There are    24 symmetry adapted basis functions of B1  symmetry.
 There are    51 symmetry adapted basis functions of B2  symmetry.
   162 basis functions,   304 primitive gaussians,   162 cartesian basis functions
    36 alpha electrons       36 beta electrons
       nuclear repulsion energy       500.8200483899 Hartrees.
 NAtoms=   16 NActive=   16 NUniq=   10 SFac= 2.56D+00 NAtFMM=   60 NAOKFM=F Big=F
 Integral buffers will be    131072 words long.
 Raffenetti 1 integral format.
 Two-electron integral symmetry is turned on.
 One-electron integrals computed using PRISM.
 NBasis=   162 RedAO= T EigKep=  4.52D-04  NBF=    71    16    24    51
 NBsUse=   162 1.00D-06 EigRej= -1.00D+00 NBFU=    71    16    24    51
 ExpMin= 1.61D-01 ExpMax= 5.48D+03 ExpMxC= 8.25D+02 IAcc=1 IRadAn=         1 AccDes= 0.00D+00
 Harris functional with IExCor=  205 and IRadAn=       1 diagonalized for initial guess.
 HarFok:  IExCor=  205 AccDes= 0.00D+00 IRadAn=         1 IDoV= 1 UseB2=F ITyADJ=14
 ICtDFT=  3500011 ScaDFX=  1.000000  1.000000  1.000000  1.000000
 FoFCou: FMM=F IPFlag=           0 FMFlag=      100000 FMFlg1=           0
         NFxFlg=           0 DoJE=T BraDBF=F KetDBF=T FulRan=T
         wScrn=  0.000000 ICntrl=     500 IOpCl=  0 I1Cent=   200000004 NGrid=           0
         NMat0=    1 NMatS0=      1 NMatT0=    0 NMatD0=    1 NMtDS0=    0 NMtDT0=    0
 Petite list used in FoFCou.
 Initial guess orbital symmetries:
       Occupied  (B2) (A1) (A1) (A1) (A1) (B2) (A1) (B2) (A1) (A1)
                 (A1) (B2) (A1) (A1) (B2) (A1) (A1) (B2) (A1) (A1)
                 (B2) (A1) (B2) (A1) (B2) (B1) (B2) (A1) (B1) (B2)
                 (B1) (A2) (A2) (A1) (B2) (B1)
       Virtual   (B1) (A2) (B1) (A1) (B1) (A1) (B2) (A1) (B2) (B2)
                 (A1) (A1) (B2) (B2) (A1) (A1) (A1) (B2) (B2) (B1)
                 (A1) (A1) (A1) (B2) (A1) (A1) (A2) (B1) (B2) (B2)
                 (A2) (B1) (A1) (A1) (B1) (B1) (B2) (A1) (B1) (A1)
                 (B2) (B2) (A1) (B2) (A1) (B2) (A2) (A1) (B2) (A1)
                 (A1) (B1) (A1) (B2) (B2) (A1) (A2) (B2) (A1) (B1)
                 (B1) (B2) (B1) (A2) (A1) (A2) (B2) (A1) (A2) (A1)
                 (B2) (A2) (B2) (B1) (A1) (A1) (B2) (A2) (A1) (B2)
                 (B1) (B2) (A1) (B2) (A1) (B1) (A1) (A1) (A2) (B2)
                 (A1) (B2) (B1) (A2) (A1) (B1) (B2) (A1) (B1) (B2)
                 (A1) (A2) (B1) (A1) (A1) (B2) (A1) (A2) (B2) (A1)
                 (A1) (B2) (B2) (A1) (B2) (A1) (A1) (A1) (A1) (A1)
                 (B2) (B2) (A1) (B2) (A1) (A1)
 The electronic state of the initial guess is 1-A1.
 Keep R1 ints in memory in symmetry-blocked form, NReq=110605790.
 Requested convergence on RMS density matrix=1.00D-08 within 128 cycles.
 Requested convergence on MAX density matrix=1.00D-06.
 Requested convergence on             energy=1.00D-06.
 No special actions if energy rises.
 SCF Done:  E(RHF) =  -489.206860340     A.U. after   14 cycles
            NFock= 14  Conv=0.70D-08     -V/T= 2.0016

 **********************************************************************

            Population analysis using the SCF density.

 **********************************************************************

 Orbital symmetries:
 BldTbl:  Degeneracy threshold= 1.00D-02
       Occupied  (B2) (A1) (A1) (A1) (A1) (A1) (B2) (A1) (B2) (A1)
                 (A1) (B2) (A1) (A1) (A1) (B2) (A1) (B2) (A1) (A1)
                 (B2) (A1) (B1) (B2) (A1) (B2) (B2) (A1) (B1) (B2)
                 (A1) (B1) (B2) (A2) (A2) (B1)
       Virtual   (B1) (A2) (B1) (A1) (A1) (B2) (B2) (A1) (B2) (B1)
                 (A1) (A1) (B2) (B2) (A1) (A1) (A1) (B2) (A1) (A1)
                 (B2) (B1) (A1) (B2) (B1) (A2) (A1) (B2) (A1) (A2)
                 (B1) (B2) (A1) (A1) (B1) (B1) (B2) (B1) (A1) (A1)
                 (B2) (B2) (A1) (B2) (A1) (A1) (B2) (B2) (A1) (A2)
                 (A1) (B1) (B2) (A1) (B2) (A1) (A2) (B2) (A1) (B1)
                 (B1) (B2) (A2) (A1) (B2) (A1) (B1) (A2) (A2) (A1)
                 (B2) (A2) (B1) (B2) (A1) (A1) (B2) (A2) (A1) (B2)
                 (B1) (A1) (A1) (B2) (B1) (B2) (A1) (A1) (A2) (A1)
                 (B2) (B2) (B1) (A1) (A2) (B1) (B2) (A1) (B1) (B2)
                 (A1) (B1) (A2) (A1) (A1) (B2) (A2) (A1) (B2) (A1)
                 (A1) (B2) (B2) (A1) (B2) (A1) (A1) (A1) (A1) (B2)
                 (A1) (B2) (A1) (B2) (A1) (A1)
 The electronic state is 1-A1.
 Alpha  occ. eigenvalues --  -20.58408 -20.58402 -15.84124 -15.59651 -11.31742
 Alpha  occ. eigenvalues --  -11.27801 -11.26725 -11.26717 -11.24486 -11.24485
 Alpha  occ. eigenvalues --   -1.61702  -1.39939  -1.26345  -1.17699  -1.06617
 Alpha  occ. eigenvalues --   -1.04673  -0.93679  -0.86798  -0.81821  -0.77208
 Alpha  occ. eigenvalues --   -0.73811  -0.73203  -0.71877  -0.70689  -0.64171
 Alpha  occ. eigenvalues --   -0.62797  -0.61518  -0.58608  -0.56277  -0.51872
 Alpha  occ. eigenvalues --   -0.47747  -0.47454  -0.47109  -0.43855  -0.36551
 Alpha  occ. eigenvalues --   -0.31549
 Alpha virt. eigenvalues --    0.08108   0.12566   0.20064   0.20336   0.24085
 Alpha virt. eigenvalues --    0.24702   0.30682   0.31320   0.34393   0.36828
 Alpha virt. eigenvalues --    0.39909   0.41917   0.47524   0.49829   0.51883
 Alpha virt. eigenvalues --    0.53098   0.55410   0.60108   0.69902   0.71511
 Alpha virt. eigenvalues --    0.71864   0.72460   0.78413   0.79527   0.79967
 Alpha virt. eigenvalues --    0.80308   0.80829   0.81589   0.82437   0.88516
 Alpha virt. eigenvalues --    0.89492   0.89960   0.91444   0.95410   0.97986
 Alpha virt. eigenvalues --    0.98780   1.03636   1.03874   1.04553   1.08768
 Alpha virt. eigenvalues --    1.09716   1.10172   1.13841   1.16896   1.17050
 Alpha virt. eigenvalues --    1.19590   1.20840   1.23029   1.24283   1.24828
 Alpha virt. eigenvalues --    1.25818   1.30006   1.31651   1.33114   1.40330
 Alpha virt. eigenvalues --    1.41584   1.47102   1.47936   1.48636   1.53338
 Alpha virt. eigenvalues --    1.58846   1.61646   1.67202   1.67289   1.68061
 Alpha virt. eigenvalues --    1.68579   1.70384   1.73446   1.76481   1.82051
 Alpha virt. eigenvalues --    1.87819   1.92787   2.00123   2.03101   2.04032
 Alpha virt. eigenvalues --    2.07879   2.09608   2.12320   2.13562   2.14275
 Alpha virt. eigenvalues --    2.20001   2.24398   2.28066   2.30424   2.30629
 Alpha virt. eigenvalues --    2.32369   2.37477   2.39654   2.44702   2.44742
 Alpha virt. eigenvalues --    2.48127   2.50724   2.55886   2.58313   2.59432
 Alpha virt. eigenvalues --    2.62873   2.71446   2.73102   2.77548   2.85502
 Alpha virt. eigenvalues --    2.86121   2.90991   2.95110   2.97069   3.07441
 Alpha virt. eigenvalues --    3.09236   3.10430   3.13386   3.19947   3.22237
 Alpha virt. eigenvalues --    3.27431   3.31374   3.43714   3.50236   3.63696
 Alpha virt. eigenvalues --    3.84048   4.18592   4.24204   4.36285   4.47344
 Alpha virt. eigenvalues --    4.50656   4.52697   4.57439   4.73565   4.82689
 Alpha virt. eigenvalues --    5.15301
          Condensed to atoms (all electrons):
               1          2          3          4          5          6
     1  C    4.875795  -0.055425   0.534024  -0.032728  -0.034376   0.542905
     2  C   -0.055425   4.875795  -0.032728   0.534024  -0.034376   0.542905
     3  C    0.534024  -0.032728   5.019127  -0.039944   0.553005  -0.048036
     4  C   -0.032728   0.534024  -0.039944   5.019127   0.553005  -0.048036
     5  C   -0.034376  -0.034376   0.553005   0.553005   4.403268  -0.026333
     6  C    0.542905   0.542905  -0.048036  -0.048036  -0.026333   4.900180
     7  H    0.367622   0.003200  -0.026355   0.000034   0.001499  -0.016952
     8  H    0.003200   0.367622   0.000034  -0.026355   0.001499  -0.016952
     9  H   -0.022016   0.000170   0.379595   0.002796  -0.034259   0.001312
    10  H    0.000170  -0.022016   0.002796   0.379595  -0.034259   0.001312
    11  N   -0.048085  -0.048085   0.002137   0.002137  -0.000085   0.262959
    12  N    0.002997   0.002997  -0.065532  -0.065532   0.299737   0.000261
    13  H    0.000048  -0.000077  -0.000843   0.002807  -0.026001  -0.000000
    14  H   -0.000077   0.000048   0.002807  -0.000843  -0.026001  -0.000000
    15  O    0.004830   0.004696   0.000998  -0.000024  -0.000006  -0.102267
    16  O    0.004696   0.004830  -0.000024   0.000998  -0.000006  -0.102267
               7          8          9         10         11         12
     1  C    0.367622   0.003200  -0.022016   0.000170  -0.048085   0.002997
     2  C    0.003200   0.367622   0.000170  -0.022016  -0.048085   0.002997
     3  C   -0.026355   0.000034   0.379595   0.002796   0.002137  -0.065532
     4  C    0.000034  -0.026355   0.002796   0.379595   0.002137  -0.065532
     5  C    0.001499   0.001499  -0.034259  -0.034259  -0.000085   0.299737
     6  C   -0.016952  -0.016952   0.001312   0.001312   0.262959   0.000261
     7  H    0.399214  -0.000089  -0.001538   0.000009  -0.006252  -0.000064
     8  H   -0.000089   0.399214   0.000009  -0.001538  -0.006252  -0.000064
     9  H   -0.001538   0.000009   0.463455  -0.000109  -0.000053  -0.002414
    10  H    0.000009  -0.001538  -0.000109   0.463455  -0.000053  -0.002414
    11  N   -0.006252  -0.006252  -0.000053  -0.000053   5.644584  -0.000000
    12  N   -0.000064  -0.000064  -0.002414  -0.002414  -0.000000   7.115620
    13  H   -0.000005   0.000002   0.003305  -0.000075  -0.000000   0.336194
    14  H    0.000002  -0.000005  -0.000075   0.003305  -0.000000   0.336194
    15  O    0.010060   0.000055  -0.000001   0.000001   0.339810   0.000000
    16  O    0.000055   0.010060   0.000001  -0.000001   0.339810   0.000000
              13         14         15         16
     1  C    0.000048  -0.000077   0.004830   0.004696
     2  C   -0.000077   0.000048   0.004696   0.004830
     3  C   -0.000843   0.002807   0.000998  -0.000024
     4  C    0.002807  -0.000843  -0.000024   0.000998
     5  C   -0.026001  -0.026001  -0.000006  -0.000006
     6  C   -0.000000  -0.000000  -0.102267  -0.102267
     7  H   -0.000005   0.000002   0.010060   0.000055
     8  H    0.000002  -0.000005   0.000055   0.010060
     9  H    0.003305  -0.000075  -0.000001   0.000001
    10  H   -0.000075   0.003305   0.000001  -0.000001
    11  N   -0.000000  -0.000000   0.339810   0.339810
    12  N    0.336194   0.336194   0.000000   0.000000
    13  H    0.306394  -0.016481   0.000000   0.000000
    14  H   -0.016481   0.306394   0.000000   0.000000
    15  O    0.000000   0.000000   8.335114  -0.107716
    16  O    0.000000   0.000000  -0.107716   8.335114
 Mulliken charges:
               1
     1  C   -0.143579
     2  C   -0.143579
     3  C   -0.281061
     4  C   -0.281061
     5  C    0.403688
     6  C    0.109009
     7  H    0.269561
     8  H    0.269561
     9  H    0.209823
    10  H    0.209823
    11  N    0.517430
    12  N   -0.957980
    13  H    0.394732
    14  H    0.394732
    15  O   -0.485549
    16  O   -0.485549
 Sum of Mulliken charges =   0.00000
 Mulliken charges with hydrogens summed into heavy atoms:
               1
     1  C    0.125981
     2  C    0.125981
     3  C   -0.071238
     4  C   -0.071238
     5  C    0.403688
     6  C    0.109009
    11  N    0.517430
    12  N   -0.168516
    15  O   -0.485549
    16  O   -0.485549
 DipInt: DoE/N= T F RetVal/Mat= T F Init=T NMatP=  1 IDeriv=0 Min/MaxMlt=  0  4
 Entering OneElI...
 OneElI was handed  1572794238 working-precision words.
 Multipole integrals L=0 to 4 MinM= 0 MaxM= 0.
 Requested accuracy = 0.1000D-12
 ShPair: Thresh= 1.00D-13 NBox=     0 BxSize= 0.00D+00 RnKept= 1.31D+01
         NSMCal=                 1378 NSMKep=                1263
 PrsmSu:  NPrtUS=   1 ThrOK=F IAlg=1 NPAlg=1 LenDen=           0.
 Prism:   IPart=     0 DynPar=F LinDyn=F Incr=          12.
 PRISM was handed  1572669845 working-precision words and  1263 shell-pairs
 IPart=  0 NShTot=        1263 NBatch=          42 AvBLen=        30.1
 PrSmSu:  NxtVal=             13.
 Electronic moments (au):
        -72.00000000          0.00000000         -0.00000000          2.94753279
        -44.59357452       -297.50695165      -1190.23665825         -0.00000000
         -0.00000000         -0.00000000          0.00000000          0.00000000
       -571.76199465          0.00000000          0.00000000        -19.08828557
          0.00000000         -0.00000000         74.23067862          0.00000000
       -152.81226156      -2886.85380946     -37075.65123947         -0.00000000
         -0.00000000         -0.00000000         -0.00000000         -0.00000000
         -0.00000000       -208.96164934       -705.10772267      -3588.26519734
          0.00000000         -0.00000000         -0.00000000
 Electronic spatial extent (au):  <R**2>=           1532.3372
 DipInt: DoE/N= F T RetVal/Mat= T F Init=T NMatP=  1 IDeriv=0 Min/MaxMlt=  0  4
 Nuclear    moments (au):
         72.00000000         -0.00000000          0.00000000          0.00000000
          0.00000000        258.75184370       1148.07215067          0.00000000
          0.00000000          0.00000000         -0.00000000          0.00000000
        716.89587694         -0.00000000         -0.00000000         -0.00000000
         -0.00000000          0.00000000        -51.21936278         -0.00000000
          0.00000000       1973.55337016      33602.40555287          0.00000000
         -0.00000000          0.00000000          0.00000000          0.00000000
          0.00000000          0.00000000          0.00000000       2823.49998866
         -0.00000000         -0.00000000          0.00000000
 Total      moments (au):
         -0.00000000         -0.00000000         -0.00000000          2.94753279
        -44.59357452        -38.75510796        -42.16450758          0.00000000
         -0.00000000          0.00000000          0.00000000          0.00000000
        145.13388229          0.00000000          0.00000000        -19.08828557
          0.00000000          0.00000000         23.01131584          0.00000000
       -152.81226156       -913.30043930      -3473.24568660         -0.00000000
         -0.00000000         -0.00000000          0.00000000         -0.00000000
          0.00000000       -208.96164934       -705.10772267       -764.76520868
          0.00000000         -0.00000000         -0.00000000
 Traceless Quadrup. (au):
         -2.75584450          3.08262206         -0.32677756          0.00000000
         -0.00000000          0.00000000
 Charge=             -0.0000 electrons
 Dipole moment (field-independent basis, Debye):
    X=             -0.0000    Y=             -0.0000    Z=              7.4919  Tot=              7.4919
 Quadrupole moment (field-independent basis, Debye-Ang):
   XX=            -59.9799   YY=            -52.1269   ZZ=            -56.7127
   XY=              0.0000   XZ=             -0.0000   YZ=              0.0000
 Traceless Quadrupole moment (field-independent basis, Debye-Ang):
   XX=             -3.7067   YY=              4.1462   ZZ=             -0.4395
   XY=              0.0000   XZ=             -0.0000   YZ=              0.0000
 Octapole moment (field-independent basis, Debye-Ang**2):
  XXX=              0.0000  YYY=              0.0000  ZZZ=            103.3007  XYY=              0.0000
  XXY=              0.0000  XXZ=            -13.5863  XZZ=              0.0000  YZZ=              0.0000
  YYZ=             16.3786  XYZ=              0.0000
 Hexadecapole moment (field-independent basis, Debye-Ang**3):
 XXXX=            -57.5564 YYYY=           -343.9927 ZZZZ=          -1308.1908 XXXY=             -0.0000
 XXXZ=             -0.0000 YYYX=             -0.0000 YYYZ=              0.0000 ZZZX=             -0.0000
 ZZZY=              0.0000 XXYY=            -78.7050 XXZZ=           -265.5774 YYZZ=           -288.0472
 XXYZ=              0.0000 YYXZ=             -0.0000 ZZXY=             -0.0000
 N-N= 5.008200483899D+02 E-N=-2.148095910197D+03  KE= 4.884042946057D+02
 Symmetry A1   KE= 3.155118521926D+02
 Symmetry A2   KE= 6.733963788370D+00
 Symmetry B1   KE= 1.090230389426D+01
 Symmetry B2   KE= 1.552561747305D+02
 Entering OneElI...
 OneElI was handed  1572806879 working-precision words.
 Calculate electrostatic properties
    NBasis =   162  MinDer = 0  MaxDer = 0
    NGrid  =    16  NMatD  =   1
 Requested accuracy = 0.1000D-12
 ShPair: Thresh= 1.00D-13 NBox=     0 BxSize= 0.00D+00 RnKept= 1.31D+01
         NSMCal=                 1378 NSMKep=                1201
 PrsmSu:  NPrtUS=   4 ThrOK=T IAlg=1 NPAlg=1 LenDen=           0.
 Prism:   IPart=     0 DynPar=F LinDyn=F Incr=          48.
 PRISM was handed   393139908 working-precision words and  1201 shell-pairs
 PRISM was handed   393139908 working-precision words and  1201 shell-pairs
 PRISM was handed   393139908 working-precision words and  1201 shell-pairs
 PRISM was handed   393139908 working-precision words and  1201 shell-pairs
 IPart=  3 NShTot=        4640 NBatch=         290 AvBLen=        16.0
 IPart=  0 NShTot=        5024 NBatch=         314 AvBLen=        16.0
 IPart=  2 NShTot=        4656 NBatch=         291 AvBLen=        16.0
 IPart=  1 NShTot=        4896 NBatch=         306 AvBLen=        16.0
 PrSmSu:  NxtVal=            193.
 --------------------------------------------------------
       Center         ----      EFG at Nuclei      ----
                      3XX-RR        3YY-RR        3ZZ-RR
 --------------------------------------------------------
     1   Atom       -0.462667      0.209458      0.253209
     2   Atom       -0.462667      0.209458      0.253209
     3   Atom       -0.144240      0.037802      0.106438
     4   Atom       -0.144240      0.037802      0.106438
     5   Atom       -0.460504      0.394388      0.066116
     6   Atom        0.069743      0.230788     -0.300531
     7   Atom        0.168041     -0.208239      0.040198
     8   Atom        0.168041     -0.208239      0.040198
     9   Atom        0.185288     -0.210974      0.025686
    10   Atom        0.185288     -0.210974      0.025686
    11   Atom       -0.665488      0.169931      0.495557
    12   Atom        1.129836     -0.517765     -0.612071
    13   Atom        0.273156     -0.283021      0.009865
    14   Atom        0.273156     -0.283021      0.009865
    15   Atom       -0.420006     -0.977783      1.397789
    16   Atom       -0.420006     -0.977783      1.397789
 --------------------------------------------------------
                        XY            XZ            YZ
 --------------------------------------------------------
     1   Atom        0.000000     -0.000000     -0.023684
     2   Atom       -0.000000      0.000000      0.023684
     3   Atom       -0.000000      0.000000      0.004772
     4   Atom       -0.000000      0.000000     -0.004772
     5   Atom        0.000000      0.000000     -0.000000
     6   Atom        0.000000     -0.000000     -0.000000
     7   Atom        0.000000     -0.000000      0.208514
     8   Atom       -0.000000     -0.000000     -0.208514
     9   Atom        0.000000      0.000000     -0.206206
    10   Atom       -0.000000      0.000000      0.206206
    11   Atom       -0.000000     -0.000000      0.000000
    12   Atom        0.000000      0.000000     -0.000000
    13   Atom       -0.000000      0.000000     -0.280756
    14   Atom       -0.000000      0.000000      0.280756
    15   Atom       -0.000000     -0.000000      1.729885
    16   Atom        0.000000      0.000000     -1.729885
 --------------------------------------------------------


 ---------------------------------------------------------------------------------
              Nuclear Quadrupole Coupling Constant in Principal Axis System
 ---------------------------------------------------------------------------------

       Atom             a.u.   MegaHertz   Gauss  10(-4) cm-1        Axes

              Baa    -0.6655     3.196     1.140     1.066  1.0000  0.0000  0.0000
    11 N(14)  Bbb     0.1699    -0.816    -0.291    -0.272 -0.0000  1.0000 -0.0000
              Bcc     0.4956    -2.380    -0.849    -0.794 -0.0000  0.0000  1.0000
 
              Baa    -0.6121     2.940     1.049     0.981 -0.0000  0.0000  1.0000
    12 N(14)  Bbb    -0.5178     2.487     0.887     0.829 -0.0000  1.0000 -0.0000
              Bcc     1.1298    -5.426    -1.936    -1.810  1.0000  0.0000  0.0000
 

 ---------------------------------------------------------------------------------

 No NMR shielding tensors so no spin-rotation constants.
 Leave Link  601 at Fri Aug 21 15:30:15 2015, MaxMem=  1572864000 cpu:         0.6
 FitSet:  NAtFit=    16 NAtPot=    16 NAtFrz=     0 MDM=    20 TotChg=   0.00000
 Merz-Kollman atomic radii used.
 Atom Element Radius
    1     6    1.50
    2     6    1.50
    3     6    1.50
    4     6    1.50
    5     6    1.50
    6     6    1.50
    7     1    1.20
    8     1    1.20
    9     1    1.20
   10     1    1.20
   11     7    1.50
   12     7    1.50
   13     1    1.20
   14     1    1.20
   15     8    1.40
   16     8    1.40
 Generate VDW surfaces: Layer= 4 Dens= 6 Start= 1.400 Inc= 0.200

 **********************************************************************

            Electrostatic Properties Using The SCF Density

 **********************************************************************

       Atomic Center    1 is at  -0.000000  1.205317 -0.024240
       Atomic Center    2 is at  -0.000000 -1.205317 -0.024240
       Atomic Center    3 is at   0.000000  1.207054  1.350298
       Atomic Center    4 is at  -0.000000 -1.207054  1.350298
       Atomic Center    5 is at   0.000000 -0.000000  2.063290
       Atomic Center    6 is at   0.000000  0.000000 -0.710407
       Atomic Center    7 is at  -0.000000  2.127106 -0.570359
       Atomic Center    8 is at  -0.000000 -2.127106 -0.570359
       Atomic Center    9 is at   0.000000  2.140389  1.883969
       Atomic Center   10 is at  -0.000000 -2.140389  1.883969
       Atomic Center   11 is at   0.000000  0.000000 -2.153144
       Atomic Center   12 is at   0.000000 -0.000000  3.422806
       Atomic Center   13 is at  -0.000000  0.848501  3.936990
       Atomic Center   14 is at  -0.000000 -0.848501  3.936990
       Atomic Center   15 is at   0.000000  1.057387 -2.713677
       Atomic Center   16 is at  -0.000000 -1.057387 -2.713677
      ESP Fit Center   17 is at   2.059649  1.205317  0.385450
      ESP Fit Center   18 is at   2.017488  1.619921  0.385450
      ESP Fit Center   19 is at   1.892731  2.017552  0.385450
      ESP Fit Center   20 is at   1.690485  2.381929  0.385450
      ESP Fit Center   21 is at   1.419030  2.698136  0.385450
      ESP Fit Center   22 is at  -1.260724  2.834038  0.385450
      ESP Fit Center   23 is at  -1.562775  2.546916  0.385450
      ESP Fit Center   24 is at  -1.800847  2.204869  0.385450
      ESP Fit Center   25 is at  -1.965192  1.821900  0.385450
      ESP Fit Center   26 is at  -2.049082  1.413688  0.385450
      ESP Fit Center   27 is at  -2.049082  0.996946  0.385450
      ESP Fit Center   28 is at  -1.965192  0.588734  0.385450
      ESP Fit Center   29 is at  -1.800847  0.205765  0.385450
      ESP Fit Center   30 is at   1.892731  0.393082  0.385450
      ESP Fit Center   31 is at   2.017488  0.790713  0.385450
      ESP Fit Center   32 is at   2.100000  1.205317 -0.024240
      ESP Fit Center   33 is at   2.059649  1.615007 -0.024240
      ESP Fit Center   34 is at   1.940147  2.008952 -0.024240
      ESP Fit Center   35 is at   1.746086  2.372014 -0.024240
      ESP Fit Center   36 is at  -1.746086  2.372014 -0.024240
      ESP Fit Center   37 is at  -1.940147  2.008952 -0.024240
      ESP Fit Center   38 is at  -2.059649  1.615007 -0.024240
      ESP Fit Center   39 is at  -2.100000  1.205317 -0.024240
      ESP Fit Center   40 is at  -2.059649  0.795627 -0.024240
      ESP Fit Center   41 is at   2.059649  0.795627 -0.024240
      ESP Fit Center   42 is at   2.059649  1.205317 -0.433930
      ESP Fit Center   43 is at   2.017488  1.619921 -0.433930
      ESP Fit Center   44 is at   1.892731  2.017552 -0.433930
      ESP Fit Center   45 is at   1.690485  2.381929 -0.433930
      ESP Fit Center   46 is at  -1.800847  2.204869 -0.433930
      ESP Fit Center   47 is at  -1.965192  1.821900 -0.433930
      ESP Fit Center   48 is at  -2.049082  1.413688 -0.433930
      ESP Fit Center   49 is at  -2.049082  0.996946 -0.433930
      ESP Fit Center   50 is at   2.017488  0.790713 -0.433930
      ESP Fit Center   51 is at   1.940147  1.205317 -0.827875
      ESP Fit Center   52 is at   1.894787  1.622391 -0.827875
      ESP Fit Center   53 is at   1.760830  2.019964 -0.827875
      ESP Fit Center   54 is at  -1.662429  2.205567 -0.827875
      ESP Fit Center   55 is at  -1.838586  1.824809 -0.827875
      ESP Fit Center   56 is at  -1.928774  1.415084 -0.827875
      ESP Fit Center   57 is at  -1.928774  0.995550 -0.827875
      ESP Fit Center   58 is at   1.746086  1.205317 -1.190937
      ESP Fit Center   59 is at   1.695348  1.623183 -1.190937
      ESP Fit Center   60 is at  -1.695348  1.623183 -1.190937
      ESP Fit Center   61 is at  -1.746086  1.205317 -1.190937
      ESP Fit Center   62 is at   2.059649 -1.205317  0.385450
      ESP Fit Center   63 is at   2.017488 -0.790713  0.385450
      ESP Fit Center   64 is at   1.892731 -0.393082  0.385450
      ESP Fit Center   65 is at  -1.800847 -0.205765  0.385450
      ESP Fit Center   66 is at  -1.965192 -0.588734  0.385450
      ESP Fit Center   67 is at  -2.049082 -0.996946  0.385450
      ESP Fit Center   68 is at  -2.049082 -1.413688  0.385450
      ESP Fit Center   69 is at  -1.965192 -1.821900  0.385450
      ESP Fit Center   70 is at  -1.800847 -2.204869  0.385450
      ESP Fit Center   71 is at  -1.562775 -2.546916  0.385450
      ESP Fit Center   72 is at  -1.260724 -2.834038  0.385450
      ESP Fit Center   73 is at   1.419030 -2.698136  0.385450
      ESP Fit Center   74 is at   1.690485 -2.381929  0.385450
      ESP Fit Center   75 is at   1.892731 -2.017552  0.385450
      ESP Fit Center   76 is at   2.017488 -1.619921  0.385450
      ESP Fit Center   77 is at   2.100000 -1.205317 -0.024240
      ESP Fit Center   78 is at   2.059649 -0.795627 -0.024240
      ESP Fit Center   79 is at  -2.059649 -0.795627 -0.024240
      ESP Fit Center   80 is at  -2.100000 -1.205317 -0.024240
      ESP Fit Center   81 is at  -2.059649 -1.615007 -0.024240
      ESP Fit Center   82 is at  -1.940147 -2.008952 -0.024240
      ESP Fit Center   83 is at  -1.746086 -2.372014 -0.024240
      ESP Fit Center   84 is at   1.746086 -2.372014 -0.024240
      ESP Fit Center   85 is at   1.940147 -2.008952 -0.024240
      ESP Fit Center   86 is at   2.059649 -1.615007 -0.024240
      ESP Fit Center   87 is at   2.059649 -1.205317 -0.433930
      ESP Fit Center   88 is at   2.017488 -0.790713 -0.433930
      ESP Fit Center   89 is at  -2.049082 -0.996946 -0.433930
      ESP Fit Center   90 is at  -2.049082 -1.413688 -0.433930
      ESP Fit Center   91 is at  -1.965192 -1.821900 -0.433930
      ESP Fit Center   92 is at  -1.800847 -2.204869 -0.433930
      ESP Fit Center   93 is at   1.690485 -2.381929 -0.433930
      ESP Fit Center   94 is at   1.892731 -2.017552 -0.433930
      ESP Fit Center   95 is at   2.017488 -1.619921 -0.433930
      ESP Fit Center   96 is at   1.940147 -1.205317 -0.827875
      ESP Fit Center   97 is at  -1.928774 -0.995550 -0.827875
      ESP Fit Center   98 is at  -1.928774 -1.415084 -0.827875
      ESP Fit Center   99 is at  -1.838586 -1.824809 -0.827875
      ESP Fit Center  100 is at  -1.662429 -2.205567 -0.827875
      ESP Fit Center  101 is at   1.760830 -2.019964 -0.827875
      ESP Fit Center  102 is at   1.894787 -1.622391 -0.827875
      ESP Fit Center  103 is at   1.746086 -1.205317 -1.190937
      ESP Fit Center  104 is at  -1.746086 -1.205317 -1.190937
      ESP Fit Center  105 is at  -1.695348 -1.623183 -1.190937
      ESP Fit Center  106 is at   1.695348 -1.623183 -1.190937
      ESP Fit Center  107 is at   1.424774  1.625406  2.835222
      ESP Fit Center  108 is at  -1.424774  1.625406  2.835222
      ESP Fit Center  109 is at   1.746086  1.207054  2.516996
      ESP Fit Center  110 is at   1.695348  1.624920  2.516996
      ESP Fit Center  111 is at  -1.695348  1.624920  2.516996
      ESP Fit Center  112 is at  -1.746086  1.207054  2.516996
      ESP Fit Center  113 is at   1.940147  1.207054  2.153933
      ESP Fit Center  114 is at   1.894787  1.624128  2.153933
      ESP Fit Center  115 is at   1.760830  2.021701  2.153933
      ESP Fit Center  116 is at  -1.662429  2.207304  2.153933
      ESP Fit Center  117 is at  -1.838586  1.826546  2.153933
      ESP Fit Center  118 is at  -1.928774  1.416821  2.153933
      ESP Fit Center  119 is at  -1.928774  0.997287  2.153933
      ESP Fit Center  120 is at   2.059649  1.207054  1.759988
      ESP Fit Center  121 is at   2.017488  1.621658  1.759988
      ESP Fit Center  122 is at   1.892731  2.019289  1.759988
      ESP Fit Center  123 is at   1.690485  2.383666  1.759988
      ESP Fit Center  124 is at  -1.800847  2.206606  1.759988
      ESP Fit Center  125 is at  -1.965192  1.823637  1.759988
      ESP Fit Center  126 is at  -2.049082  1.415425  1.759988
      ESP Fit Center  127 is at  -2.049082  0.998683  1.759988
      ESP Fit Center  128 is at   2.017488  0.792450  1.759988
      ESP Fit Center  129 is at   2.100000  1.207054  1.350298
      ESP Fit Center  130 is at   2.059649  1.616744  1.350298
      ESP Fit Center  131 is at   1.940147  2.010689  1.350298
      ESP Fit Center  132 is at   1.746086  2.373751  1.350298
      ESP Fit Center  133 is at  -1.746086  2.373751  1.350298
      ESP Fit Center  134 is at  -1.940147  2.010689  1.350298
      ESP Fit Center  135 is at  -2.059649  1.616744  1.350298
      ESP Fit Center  136 is at  -2.100000  1.207054  1.350298
      ESP Fit Center  137 is at  -2.059649  0.797364  1.350298
      ESP Fit Center  138 is at  -1.940147  0.403419  1.350298
      ESP Fit Center  139 is at   1.940147  0.403419  1.350298
      ESP Fit Center  140 is at   2.059649  0.797364  1.350298
      ESP Fit Center  141 is at   2.059649  1.207054  0.940608
      ESP Fit Center  142 is at   2.017488  1.621658  0.940608
      ESP Fit Center  143 is at   1.892731  2.019289  0.940608
      ESP Fit Center  144 is at   1.690485  2.383666  0.940608
      ESP Fit Center  145 is at   1.419030  2.699873  0.940608
      ESP Fit Center  146 is at  -1.260724  2.835775  0.940608
      ESP Fit Center  147 is at  -1.562775  2.548653  0.940608
      ESP Fit Center  148 is at  -1.800847  2.206606  0.940608
      ESP Fit Center  149 is at  -1.965192  1.823637  0.940608
      ESP Fit Center  150 is at  -2.049082  1.415425  0.940608
      ESP Fit Center  151 is at  -2.049082  0.998683  0.940608
      ESP Fit Center  152 is at  -1.965192  0.590471  0.940608
      ESP Fit Center  153 is at  -1.800847  0.207502  0.940608
      ESP Fit Center  154 is at   1.892731  0.394819  0.940608
      ESP Fit Center  155 is at   2.017488  0.792450  0.940608
      ESP Fit Center  156 is at  -1.424774 -1.625406  2.835222
      ESP Fit Center  157 is at   1.424774 -1.625406  2.835222
      ESP Fit Center  158 is at   1.746086 -1.207054  2.516996
      ESP Fit Center  159 is at  -1.746086 -1.207054  2.516996
      ESP Fit Center  160 is at  -1.695348 -1.624920  2.516996
      ESP Fit Center  161 is at   1.695348 -1.624920  2.516996
      ESP Fit Center  162 is at   1.940147 -1.207054  2.153933
      ESP Fit Center  163 is at  -1.928774 -0.997287  2.153933
      ESP Fit Center  164 is at  -1.928774 -1.416821  2.153933
      ESP Fit Center  165 is at  -1.838586 -1.826546  2.153933
      ESP Fit Center  166 is at  -1.662429 -2.207304  2.153933
      ESP Fit Center  167 is at   1.760830 -2.021701  2.153933
      ESP Fit Center  168 is at   1.894787 -1.624128  2.153933
      ESP Fit Center  169 is at   2.059649 -1.207054  1.759988
      ESP Fit Center  170 is at   2.017488 -0.792450  1.759988
      ESP Fit Center  171 is at  -2.049082 -0.998683  1.759988
      ESP Fit Center  172 is at  -2.049082 -1.415425  1.759988
      ESP Fit Center  173 is at  -1.965192 -1.823637  1.759988
      ESP Fit Center  174 is at  -1.800847 -2.206606  1.759988
      ESP Fit Center  175 is at   1.690485 -2.383666  1.759988
      ESP Fit Center  176 is at   1.892731 -2.019289  1.759988
      ESP Fit Center  177 is at   2.017488 -1.621658  1.759988
      ESP Fit Center  178 is at   2.100000 -1.207054  1.350298
      ESP Fit Center  179 is at   2.059649 -0.797364  1.350298
      ESP Fit Center  180 is at   1.940147 -0.403419  1.350298
      ESP Fit Center  181 is at  -1.940147 -0.403419  1.350298
      ESP Fit Center  182 is at  -2.059649 -0.797364  1.350298
      ESP Fit Center  183 is at  -2.100000 -1.207054  1.350298
      ESP Fit Center  184 is at  -2.059649 -1.616744  1.350298
      ESP Fit Center  185 is at  -1.940147 -2.010689  1.350298
      ESP Fit Center  186 is at  -1.746086 -2.373751  1.350298
      ESP Fit Center  187 is at   1.746086 -2.373751  1.350298
      ESP Fit Center  188 is at   1.940147 -2.010689  1.350298
      ESP Fit Center  189 is at   2.059649 -1.616744  1.350298
      ESP Fit Center  190 is at   2.059649 -1.207054  0.940608
      ESP Fit Center  191 is at   2.017488 -0.792450  0.940608
      ESP Fit Center  192 is at   1.892731 -0.394819  0.940608
      ESP Fit Center  193 is at  -1.800847 -0.207502  0.940608
      ESP Fit Center  194 is at  -1.965192 -0.590471  0.940608
      ESP Fit Center  195 is at  -2.049082 -0.998683  0.940608
      ESP Fit Center  196 is at  -2.049082 -1.415425  0.940608
      ESP Fit Center  197 is at  -1.965192 -1.823637  0.940608
      ESP Fit Center  198 is at  -1.800847 -2.206606  0.940608
      ESP Fit Center  199 is at  -1.562775 -2.548653  0.940608
      ESP Fit Center  200 is at  -1.260724 -2.835775  0.940608
      ESP Fit Center  201 is at   1.419030 -2.699873  0.940608
      ESP Fit Center  202 is at   1.690485 -2.383666  0.940608
      ESP Fit Center  203 is at   1.892731 -2.019289  0.940608
      ESP Fit Center  204 is at   2.017488 -1.621658  0.940608
      ESP Fit Center  205 is at   2.059649 -0.000000  2.472980
      ESP Fit Center  206 is at   2.017488  0.414604  2.472980
      ESP Fit Center  207 is at   1.892731  0.812235  2.472980
      ESP Fit Center  208 is at  -1.800847  0.999552  2.472980
      ESP Fit Center  209 is at  -1.965192  0.616583  2.472980
      ESP Fit Center  210 is at  -2.049082  0.208371  2.472980
      ESP Fit Center  211 is at  -2.049082 -0.208371  2.472980
      ESP Fit Center  212 is at  -1.965192 -0.616583  2.472980
      ESP Fit Center  213 is at  -1.800847 -0.999552  2.472980
      ESP Fit Center  214 is at   1.892731 -0.812235  2.472980
      ESP Fit Center  215 is at   2.017488 -0.414604  2.472980
      ESP Fit Center  216 is at   2.100000 -0.000000  2.063290
      ESP Fit Center  217 is at   2.059649  0.409690  2.063290
      ESP Fit Center  218 is at   1.940147  0.803635  2.063290
      ESP Fit Center  219 is at  -1.940147  0.803635  2.063290
      ESP Fit Center  220 is at  -2.059649  0.409690  2.063290
      ESP Fit Center  221 is at  -2.100000  0.000000  2.063290
      ESP Fit Center  222 is at  -2.059649 -0.409690  2.063290
      ESP Fit Center  223 is at  -1.940147 -0.803635  2.063290
      ESP Fit Center  224 is at   1.940147 -0.803635  2.063290
      ESP Fit Center  225 is at   2.059649 -0.409690  2.063290
      ESP Fit Center  226 is at   2.059649 -0.000000  1.653600
      ESP Fit Center  227 is at   2.017488  0.414604  1.653600
      ESP Fit Center  228 is at  -2.049082  0.208371  1.653600
      ESP Fit Center  229 is at  -2.049082 -0.208371  1.653600
      ESP Fit Center  230 is at   2.017488 -0.414604  1.653600
      ESP Fit Center  231 is at   1.940147 -0.000000  1.259655
      ESP Fit Center  232 is at  -1.928774  0.209767  1.259655
      ESP Fit Center  233 is at  -1.928774 -0.209767  1.259655
      ESP Fit Center  234 is at   1.746086 -0.000000  0.896593
      ESP Fit Center  235 is at  -1.746086 -0.000000  0.896593
      ESP Fit Center  236 is at   1.746086  0.000000  0.456291
      ESP Fit Center  237 is at  -1.746086 -0.000000  0.456291
      ESP Fit Center  238 is at   1.940147  0.000000  0.093228
      ESP Fit Center  239 is at  -1.928774  0.209767  0.093228
      ESP Fit Center  240 is at  -1.928774 -0.209767  0.093228
      ESP Fit Center  241 is at   2.059649  0.000000 -0.300717
      ESP Fit Center  242 is at   2.017488  0.414604 -0.300717
      ESP Fit Center  243 is at  -2.049082  0.208371 -0.300717
      ESP Fit Center  244 is at  -2.049082 -0.208371 -0.300717
      ESP Fit Center  245 is at   2.017488 -0.414604 -0.300717
      ESP Fit Center  246 is at   2.100000  0.000000 -0.710407
      ESP Fit Center  247 is at   2.059649  0.409690 -0.710407
      ESP Fit Center  248 is at  -2.059649  0.409690 -0.710407
      ESP Fit Center  249 is at  -2.100000  0.000000 -0.710407
      ESP Fit Center  250 is at  -2.059649 -0.409690 -0.710407
      ESP Fit Center  251 is at   2.059649 -0.409690 -0.710407
      ESP Fit Center  252 is at   2.059649  0.000000 -1.120097
      ESP Fit Center  253 is at   2.017488  0.414604 -1.120097
      ESP Fit Center  254 is at   1.892731  0.812235 -1.120097
      ESP Fit Center  255 is at  -1.800847  0.999552 -1.120097
      ESP Fit Center  256 is at  -1.965192  0.616583 -1.120097
      ESP Fit Center  257 is at  -2.049082  0.208371 -1.120097
      ESP Fit Center  258 is at  -2.049082 -0.208371 -1.120097
      ESP Fit Center  259 is at  -1.965192 -0.616583 -1.120097
      ESP Fit Center  260 is at  -1.800847 -0.999552 -1.120097
      ESP Fit Center  261 is at   1.892731 -0.812235 -1.120097
      ESP Fit Center  262 is at   2.017488 -0.414604 -1.120097
      ESP Fit Center  263 is at   0.529510  3.190506  0.617580
      ESP Fit Center  264 is at   0.109609  3.309978  0.617580
      ESP Fit Center  265 is at  -0.325095  3.269697  0.617580
      ESP Fit Center  266 is at  -0.715893  3.075102  0.617580
      ESP Fit Center  267 is at   1.202114  2.946693  0.269641
      ESP Fit Center  268 is at   0.907129  3.264610  0.269641
      ESP Fit Center  269 is at   0.531543  3.481455  0.269641
      ESP Fit Center  270 is at   0.108727  3.577960  0.269641
      ESP Fit Center  271 is at  -0.323751  3.545551  0.269641
      ESP Fit Center  272 is at  -0.727461  3.387106  0.269641
      ESP Fit Center  273 is at  -1.066534  3.116705  0.269641
      ESP Fit Center  274 is at   1.405347  2.938484 -0.135543
      ESP Fit Center  275 is at   1.147461  3.274567 -0.135543
      ESP Fit Center  276 is at   0.811378  3.532453 -0.135543
      ESP Fit Center  277 is at   0.420000  3.694567 -0.135543
      ESP Fit Center  278 is at   0.000000  3.749861 -0.135543
      ESP Fit Center  279 is at  -0.420000  3.694567 -0.135543
      ESP Fit Center  280 is at  -0.811378  3.532453 -0.135543
      ESP Fit Center  281 is at  -1.147461  3.274567 -0.135543
      ESP Fit Center  282 is at  -1.405347  2.938484 -0.135543
      ESP Fit Center  283 is at   1.627220  2.544905 -0.570359
      ESP Fit Center  284 is at   1.472195  2.936452 -0.570359
      ESP Fit Center  285 is at   1.224667  3.277145 -0.570359
      ESP Fit Center  286 is at   0.900189  3.545577 -0.570359
      ESP Fit Center  287 is at   0.519149  3.724881 -0.570359
      ESP Fit Center  288 is at   0.105488  3.803791 -0.570359
      ESP Fit Center  289 is at  -0.314801  3.777349 -0.570359
      ESP Fit Center  290 is at  -0.715309  3.647215 -0.570359
      ESP Fit Center  291 is at  -1.070872  3.421568 -0.570359
      ESP Fit Center  292 is at  -1.359149  3.114585 -0.570359
      ESP Fit Center  293 is at  -1.562024  2.745555 -0.570359
      ESP Fit Center  294 is at   1.622755  2.127106 -1.005175
      ESP Fit Center  295 is at   1.567461  2.547106 -1.005175
      ESP Fit Center  296 is at   1.405347  2.938484 -1.005175
      ESP Fit Center  297 is at   1.147461  3.274567 -1.005175
      ESP Fit Center  298 is at   0.811378  3.532453 -1.005175
      ESP Fit Center  299 is at   0.420000  3.694567 -1.005175
      ESP Fit Center  300 is at   0.000000  3.749861 -1.005175
      ESP Fit Center  301 is at  -0.420000  3.694567 -1.005175
      ESP Fit Center  302 is at  -0.811378  3.532453 -1.005175
      ESP Fit Center  303 is at  -1.147461  3.274567 -1.005175
      ESP Fit Center  304 is at  -1.405347  2.938484 -1.005175
      ESP Fit Center  305 is at  -1.567461  2.547106 -1.005175
      ESP Fit Center  306 is at  -1.622755  2.127106 -1.005175
      ESP Fit Center  307 is at   1.454923  2.127106 -1.410359
      ESP Fit Center  308 is at   1.390285  2.555952 -1.410359
      ESP Fit Center  309 is at   1.202114  2.946693 -1.410359
      ESP Fit Center  310 is at   0.907129  3.264610 -1.410359
      ESP Fit Center  311 is at   0.531543  3.481455 -1.410359
      ESP Fit Center  312 is at   0.108727  3.577960 -1.410359
      ESP Fit Center  313 is at  -0.323751  3.545551 -1.410359
      ESP Fit Center  314 is at  -0.727461  3.387106 -1.410359
      ESP Fit Center  315 is at  -1.066534  3.116705 -1.410359
      ESP Fit Center  316 is at  -1.310840  2.758373 -1.410359
      ESP Fit Center  317 is at  -1.438672  2.343951 -1.410359
      ESP Fit Center  318 is at  -1.438672  1.910261 -1.410359
      ESP Fit Center  319 is at   1.107720  2.556239 -1.758298
      ESP Fit Center  320 is at   0.877898  2.927416 -1.758298
      ESP Fit Center  321 is at   0.529510  3.190506 -1.758298
      ESP Fit Center  322 is at   0.109609  3.309978 -1.758298
      ESP Fit Center  323 is at  -0.325095  3.269697 -1.758298
      ESP Fit Center  324 is at  -0.715893  3.075102 -1.758298
      ESP Fit Center  325 is at  -1.010006  2.752476 -1.758298
      ESP Fit Center  326 is at  -1.167712  2.345389 -1.758298
      ESP Fit Center  327 is at   0.420000  2.854567 -2.025282
      ESP Fit Center  328 is at   0.000000  2.967106 -2.025282
      ESP Fit Center  329 is at  -0.420000  2.854567 -2.025282
      ESP Fit Center  330 is at  -0.715893 -3.075102  0.617580
      ESP Fit Center  331 is at  -0.325095 -3.269697  0.617580
      ESP Fit Center  332 is at   0.109609 -3.309978  0.617580
      ESP Fit Center  333 is at   0.529510 -3.190506  0.617580
      ESP Fit Center  334 is at  -1.066534 -3.116705  0.269641
      ESP Fit Center  335 is at  -0.727461 -3.387106  0.269641
      ESP Fit Center  336 is at  -0.323751 -3.545551  0.269641
      ESP Fit Center  337 is at   0.108727 -3.577960  0.269641
      ESP Fit Center  338 is at   0.531543 -3.481455  0.269641
      ESP Fit Center  339 is at   0.907129 -3.264610  0.269641
      ESP Fit Center  340 is at   1.202114 -2.946693  0.269641
      ESP Fit Center  341 is at  -1.405347 -2.938484 -0.135543
      ESP Fit Center  342 is at  -1.147461 -3.274567 -0.135543
      ESP Fit Center  343 is at  -0.811378 -3.532453 -0.135543
      ESP Fit Center  344 is at  -0.420000 -3.694567 -0.135543
      ESP Fit Center  345 is at  -0.000000 -3.749861 -0.135543
      ESP Fit Center  346 is at   0.420000 -3.694567 -0.135543
      ESP Fit Center  347 is at   0.811378 -3.532453 -0.135543
      ESP Fit Center  348 is at   1.147461 -3.274567 -0.135543
      ESP Fit Center  349 is at   1.405347 -2.938484 -0.135543
      ESP Fit Center  350 is at  -1.562024 -2.745555 -0.570359
      ESP Fit Center  351 is at  -1.359149 -3.114585 -0.570359
      ESP Fit Center  352 is at  -1.070872 -3.421568 -0.570359
      ESP Fit Center  353 is at  -0.715309 -3.647215 -0.570359
      ESP Fit Center  354 is at  -0.314801 -3.777349 -0.570359
      ESP Fit Center  355 is at   0.105488 -3.803791 -0.570359
      ESP Fit Center  356 is at   0.519149 -3.724881 -0.570359
      ESP Fit Center  357 is at   0.900189 -3.545577 -0.570359
      ESP Fit Center  358 is at   1.224667 -3.277145 -0.570359
      ESP Fit Center  359 is at   1.472195 -2.936452 -0.570359
      ESP Fit Center  360 is at   1.627220 -2.544905 -0.570359
      ESP Fit Center  361 is at   1.622755 -2.127106 -1.005175
      ESP Fit Center  362 is at  -1.622755 -2.127106 -1.005175
      ESP Fit Center  363 is at  -1.567461 -2.547106 -1.005175
      ESP Fit Center  364 is at  -1.405347 -2.938484 -1.005175
      ESP Fit Center  365 is at  -1.147461 -3.274567 -1.005175
      ESP Fit Center  366 is at  -0.811378 -3.532453 -1.005175
      ESP Fit Center  367 is at  -0.420000 -3.694567 -1.005175
      ESP Fit Center  368 is at  -0.000000 -3.749861 -1.005175
      ESP Fit Center  369 is at   0.420000 -3.694567 -1.005175
      ESP Fit Center  370 is at   0.811378 -3.532453 -1.005175
      ESP Fit Center  371 is at   1.147461 -3.274567 -1.005175
      ESP Fit Center  372 is at   1.405347 -2.938484 -1.005175
      ESP Fit Center  373 is at   1.567461 -2.547106 -1.005175
      ESP Fit Center  374 is at   1.454923 -2.127106 -1.410359
      ESP Fit Center  375 is at  -1.438672 -1.910261 -1.410359
      ESP Fit Center  376 is at  -1.438672 -2.343951 -1.410359
      ESP Fit Center  377 is at  -1.310840 -2.758373 -1.410359
      ESP Fit Center  378 is at  -1.066534 -3.116705 -1.410359
      ESP Fit Center  379 is at  -0.727461 -3.387106 -1.410359
      ESP Fit Center  380 is at  -0.323751 -3.545551 -1.410359
      ESP Fit Center  381 is at   0.108727 -3.577960 -1.410359
      ESP Fit Center  382 is at   0.531543 -3.481455 -1.410359
      ESP Fit Center  383 is at   0.907129 -3.264610 -1.410359
      ESP Fit Center  384 is at   1.202114 -2.946693 -1.410359
      ESP Fit Center  385 is at   1.390285 -2.555952 -1.410359
      ESP Fit Center  386 is at  -1.167712 -2.345389 -1.758298
      ESP Fit Center  387 is at  -1.010006 -2.752476 -1.758298
      ESP Fit Center  388 is at  -0.715893 -3.075102 -1.758298
      ESP Fit Center  389 is at  -0.325095 -3.269697 -1.758298
      ESP Fit Center  390 is at   0.109609 -3.309978 -1.758298
      ESP Fit Center  391 is at   0.529510 -3.190506 -1.758298
      ESP Fit Center  392 is at   0.877898 -2.927416 -1.758298
      ESP Fit Center  393 is at   1.107720 -2.556239 -1.758298
      ESP Fit Center  394 is at  -0.420000 -2.854567 -2.025282
      ESP Fit Center  395 is at  -0.000000 -2.967106 -2.025282
      ESP Fit Center  396 is at   0.420000 -2.854567 -2.025282
      ESP Fit Center  397 is at   0.217408  2.516951  3.506724
      ESP Fit Center  398 is at  -0.217408  2.516951  3.506724
      ESP Fit Center  399 is at   0.727461  2.560389  3.338892
      ESP Fit Center  400 is at   0.420000  2.867850  3.338892
      ESP Fit Center  401 is at   0.000000  2.980389  3.338892
      ESP Fit Center  402 is at  -0.420000  2.867850  3.338892
      ESP Fit Center  403 is at  -0.727461  2.560389  3.338892
      ESP Fit Center  404 is at   1.187939  2.140389  3.071908
      ESP Fit Center  405 is at   1.107720  2.569522  3.071908
      ESP Fit Center  406 is at   0.877898  2.940699  3.071908
      ESP Fit Center  407 is at   0.529510  3.203789  3.071908
      ESP Fit Center  408 is at   0.109609  3.323261  3.071908
      ESP Fit Center  409 is at  -0.325095  3.282980  3.071908
      ESP Fit Center  410 is at  -0.715893  3.088385  3.071908
      ESP Fit Center  411 is at  -1.010006  2.765759  3.071908
      ESP Fit Center  412 is at  -1.167712  2.358672  3.071908
      ESP Fit Center  413 is at  -1.167712  1.922106  3.071908
      ESP Fit Center  414 is at   1.454923  2.140389  2.723969
      ESP Fit Center  415 is at   1.390285  2.569235  2.723969
      ESP Fit Center  416 is at   1.202114  2.959976  2.723969
      ESP Fit Center  417 is at   0.907129  3.277893  2.723969
      ESP Fit Center  418 is at   0.531543  3.494738  2.723969
      ESP Fit Center  419 is at   0.108727  3.591243  2.723969
      ESP Fit Center  420 is at  -0.323751  3.558834  2.723969
      ESP Fit Center  421 is at  -0.727461  3.400389  2.723969
      ESP Fit Center  422 is at  -1.066534  3.129988  2.723969
      ESP Fit Center  423 is at  -1.310840  2.771656  2.723969
      ESP Fit Center  424 is at  -1.438672  2.357234  2.723969
      ESP Fit Center  425 is at  -1.438672  1.923544  2.723969
      ESP Fit Center  426 is at   1.622755  2.140389  2.318785
      ESP Fit Center  427 is at   1.567461  2.560389  2.318785
      ESP Fit Center  428 is at   1.405347  2.951767  2.318785
      ESP Fit Center  429 is at   1.147461  3.287850  2.318785
      ESP Fit Center  430 is at   0.811378  3.545736  2.318785
      ESP Fit Center  431 is at   0.420000  3.707850  2.318785
      ESP Fit Center  432 is at   0.000000  3.763144  2.318785
      ESP Fit Center  433 is at  -0.420000  3.707850  2.318785
      ESP Fit Center  434 is at  -0.811378  3.545736  2.318785
      ESP Fit Center  435 is at  -1.147461  3.287850  2.318785
      ESP Fit Center  436 is at  -1.405347  2.951767  2.318785
      ESP Fit Center  437 is at  -1.567461  2.560389  2.318785
      ESP Fit Center  438 is at  -1.622755  2.140389  2.318785
      ESP Fit Center  439 is at   1.627220  2.558188  1.883969
      ESP Fit Center  440 is at   1.472195  2.949735  1.883969
      ESP Fit Center  441 is at   1.224667  3.290428  1.883969
      ESP Fit Center  442 is at   0.900189  3.558860  1.883969
      ESP Fit Center  443 is at   0.519149  3.738164  1.883969
      ESP Fit Center  444 is at   0.105488  3.817074  1.883969
      ESP Fit Center  445 is at  -0.314801  3.790632  1.883969
      ESP Fit Center  446 is at  -0.715309  3.660498  1.883969
      ESP Fit Center  447 is at  -1.070872  3.434851  1.883969
      ESP Fit Center  448 is at  -1.359149  3.127868  1.883969
      ESP Fit Center  449 is at  -1.562024  2.758838  1.883969
      ESP Fit Center  450 is at   1.405347  2.951767  1.449153
      ESP Fit Center  451 is at   1.147461  3.287850  1.449153
      ESP Fit Center  452 is at   0.811378  3.545736  1.449153
      ESP Fit Center  453 is at   0.420000  3.707850  1.449153
      ESP Fit Center  454 is at   0.000000  3.763144  1.449153
      ESP Fit Center  455 is at  -0.420000  3.707850  1.449153
      ESP Fit Center  456 is at  -0.811378  3.545736  1.449153
      ESP Fit Center  457 is at  -1.147461  3.287850  1.449153
      ESP Fit Center  458 is at  -1.405347  2.951767  1.449153
      ESP Fit Center  459 is at   1.202114  2.959976  1.043969
      ESP Fit Center  460 is at   0.907129  3.277893  1.043969
      ESP Fit Center  461 is at   0.531543  3.494738  1.043969
      ESP Fit Center  462 is at   0.108727  3.591243  1.043969
      ESP Fit Center  463 is at  -0.323751  3.558834  1.043969
      ESP Fit Center  464 is at  -0.727461  3.400389  1.043969
      ESP Fit Center  465 is at  -1.066534  3.129988  1.043969
      ESP Fit Center  466 is at   0.529510  3.203789  0.696030
      ESP Fit Center  467 is at   0.109609  3.323261  0.696030
      ESP Fit Center  468 is at  -0.325095  3.282980  0.696030
      ESP Fit Center  469 is at  -0.715893  3.088385  0.696030
      ESP Fit Center  470 is at  -0.217408 -2.516951  3.506724
      ESP Fit Center  471 is at   0.217408 -2.516951  3.506724
      ESP Fit Center  472 is at  -0.727461 -2.560389  3.338892
      ESP Fit Center  473 is at  -0.420000 -2.867850  3.338892
      ESP Fit Center  474 is at  -0.000000 -2.980389  3.338892
      ESP Fit Center  475 is at   0.420000 -2.867850  3.338892
      ESP Fit Center  476 is at   0.727461 -2.560389  3.338892
      ESP Fit Center  477 is at   1.187939 -2.140389  3.071908
      ESP Fit Center  478 is at  -1.167712 -1.922106  3.071908
      ESP Fit Center  479 is at  -1.167712 -2.358672  3.071908
      ESP Fit Center  480 is at  -1.010006 -2.765759  3.071908
      ESP Fit Center  481 is at  -0.715893 -3.088385  3.071908
      ESP Fit Center  482 is at  -0.325095 -3.282980  3.071908
      ESP Fit Center  483 is at   0.109609 -3.323261  3.071908
      ESP Fit Center  484 is at   0.529510 -3.203789  3.071908
      ESP Fit Center  485 is at   0.877898 -2.940699  3.071908
      ESP Fit Center  486 is at   1.107720 -2.569522  3.071908
      ESP Fit Center  487 is at   1.454923 -2.140389  2.723969
      ESP Fit Center  488 is at  -1.438672 -1.923544  2.723969
      ESP Fit Center  489 is at  -1.438672 -2.357234  2.723969
      ESP Fit Center  490 is at  -1.310840 -2.771656  2.723969
      ESP Fit Center  491 is at  -1.066534 -3.129988  2.723969
      ESP Fit Center  492 is at  -0.727461 -3.400389  2.723969
      ESP Fit Center  493 is at  -0.323751 -3.558834  2.723969
      ESP Fit Center  494 is at   0.108727 -3.591243  2.723969
      ESP Fit Center  495 is at   0.531543 -3.494738  2.723969
      ESP Fit Center  496 is at   0.907129 -3.277893  2.723969
      ESP Fit Center  497 is at   1.202114 -2.959976  2.723969
      ESP Fit Center  498 is at   1.390285 -2.569235  2.723969
      ESP Fit Center  499 is at   1.622755 -2.140389  2.318785
      ESP Fit Center  500 is at  -1.622755 -2.140389  2.318785
      ESP Fit Center  501 is at  -1.567461 -2.560389  2.318785
      ESP Fit Center  502 is at  -1.405347 -2.951767  2.318785
      ESP Fit Center  503 is at  -1.147461 -3.287850  2.318785
      ESP Fit Center  504 is at  -0.811378 -3.545736  2.318785
      ESP Fit Center  505 is at  -0.420000 -3.707850  2.318785
      ESP Fit Center  506 is at  -0.000000 -3.763144  2.318785
      ESP Fit Center  507 is at   0.420000 -3.707850  2.318785
      ESP Fit Center  508 is at   0.811378 -3.545736  2.318785
      ESP Fit Center  509 is at   1.147461 -3.287850  2.318785
      ESP Fit Center  510 is at   1.405347 -2.951767  2.318785
      ESP Fit Center  511 is at   1.567461 -2.560389  2.318785
      ESP Fit Center  512 is at  -1.562024 -2.758838  1.883969
      ESP Fit Center  513 is at  -1.359149 -3.127868  1.883969
      ESP Fit Center  514 is at  -1.070872 -3.434851  1.883969
      ESP Fit Center  515 is at  -0.715309 -3.660498  1.883969
      ESP Fit Center  516 is at  -0.314801 -3.790632  1.883969
      ESP Fit Center  517 is at   0.105488 -3.817074  1.883969
      ESP Fit Center  518 is at   0.519149 -3.738164  1.883969
      ESP Fit Center  519 is at   0.900189 -3.558860  1.883969
      ESP Fit Center  520 is at   1.224667 -3.290428  1.883969
      ESP Fit Center  521 is at   1.472195 -2.949735  1.883969
      ESP Fit Center  522 is at   1.627220 -2.558188  1.883969
      ESP Fit Center  523 is at  -1.405347 -2.951767  1.449153
      ESP Fit Center  524 is at  -1.147461 -3.287850  1.449153
      ESP Fit Center  525 is at  -0.811378 -3.545736  1.449153
      ESP Fit Center  526 is at  -0.420000 -3.707850  1.449153
      ESP Fit Center  527 is at  -0.000000 -3.763144  1.449153
      ESP Fit Center  528 is at   0.420000 -3.707850  1.449153
      ESP Fit Center  529 is at   0.811378 -3.545736  1.449153
      ESP Fit Center  530 is at   1.147461 -3.287850  1.449153
      ESP Fit Center  531 is at   1.405347 -2.951767  1.449153
      ESP Fit Center  532 is at  -1.066534 -3.129988  1.043969
      ESP Fit Center  533 is at  -0.727461 -3.400389  1.043969
      ESP Fit Center  534 is at  -0.323751 -3.558834  1.043969
      ESP Fit Center  535 is at   0.108727 -3.591243  1.043969
      ESP Fit Center  536 is at   0.531543 -3.494738  1.043969
      ESP Fit Center  537 is at   0.907129 -3.277893  1.043969
      ESP Fit Center  538 is at   1.202114 -2.959976  1.043969
      ESP Fit Center  539 is at  -0.715893 -3.088385  0.696030
      ESP Fit Center  540 is at  -0.325095 -3.282980  0.696030
      ESP Fit Center  541 is at   0.109609 -3.323261  0.696030
      ESP Fit Center  542 is at   0.529510 -3.203789  0.696030
      ESP Fit Center  543 is at   2.059649  0.000000 -1.743454
      ESP Fit Center  544 is at   2.017488  0.414604 -1.743454
      ESP Fit Center  545 is at   1.892731  0.812235 -1.743454
      ESP Fit Center  546 is at  -1.800847  0.999552 -1.743454
      ESP Fit Center  547 is at  -1.965192  0.616583 -1.743454
      ESP Fit Center  548 is at  -2.049082  0.208371 -1.743454
      ESP Fit Center  549 is at  -2.049082 -0.208371 -1.743454
      ESP Fit Center  550 is at  -1.965192 -0.616583 -1.743454
      ESP Fit Center  551 is at  -1.800847 -0.999552 -1.743454
      ESP Fit Center  552 is at   1.892731 -0.812235 -1.743454
      ESP Fit Center  553 is at   2.017488 -0.414604 -1.743454
      ESP Fit Center  554 is at   2.100000  0.000000 -2.153144
      ESP Fit Center  555 is at   2.059649  0.409690 -2.153144
      ESP Fit Center  556 is at   1.940147  0.803635 -2.153144
      ESP Fit Center  557 is at  -1.940147  0.803635 -2.153144
      ESP Fit Center  558 is at  -2.059649  0.409690 -2.153144
      ESP Fit Center  559 is at  -2.100000  0.000000 -2.153144
      ESP Fit Center  560 is at  -2.059649 -0.409690 -2.153144
      ESP Fit Center  561 is at  -1.940147 -0.803635 -2.153144
      ESP Fit Center  562 is at   1.940147 -0.803635 -2.153144
      ESP Fit Center  563 is at   2.059649 -0.409690 -2.153144
      ESP Fit Center  564 is at   2.059649  0.000000 -2.562834
      ESP Fit Center  565 is at   2.017488  0.414604 -2.562834
      ESP Fit Center  566 is at  -1.965192  0.616583 -2.562834
      ESP Fit Center  567 is at  -2.049082  0.208371 -2.562834
      ESP Fit Center  568 is at  -2.049082 -0.208371 -2.562834
      ESP Fit Center  569 is at  -1.965192 -0.616583 -2.562834
      ESP Fit Center  570 is at   2.017488 -0.414604 -2.562834
      ESP Fit Center  571 is at   1.940147  0.000000 -2.956779
      ESP Fit Center  572 is at   1.894787  0.417074 -2.956779
      ESP Fit Center  573 is at  -1.928774  0.209767 -2.956779
      ESP Fit Center  574 is at  -1.928774 -0.209767 -2.956779
      ESP Fit Center  575 is at   1.894787 -0.417074 -2.956779
      ESP Fit Center  576 is at   1.746086  0.000000 -3.319841
      ESP Fit Center  577 is at  -1.746086 -0.000000 -3.319841
      ESP Fit Center  578 is at   1.484924  0.000000 -3.638068
      ESP Fit Center  579 is at  -1.484924  0.000000 -3.638068
      ESP Fit Center  580 is at   1.166697  0.000000 -3.899230
      ESP Fit Center  581 is at   0.000000 -0.000000  5.522806
      ESP Fit Center  582 is at   0.409690 -0.000000  5.482455
      ESP Fit Center  583 is at  -0.409690  0.000000  5.482455
      ESP Fit Center  584 is at   0.803635 -0.000000  5.362953
      ESP Fit Center  585 is at  -0.803635  0.000000  5.362953
      ESP Fit Center  586 is at   1.166697 -0.000000  5.168892
      ESP Fit Center  587 is at   1.087913  0.421460  5.168892
      ESP Fit Center  588 is at  -1.146832  0.214380  5.168892
      ESP Fit Center  589 is at  -1.146832 -0.214380  5.168892
      ESP Fit Center  590 is at   1.087913 -0.421460  5.168892
      ESP Fit Center  591 is at   1.484924 -0.000000  4.907730
      ESP Fit Center  592 is at   1.424774  0.418352  4.907730
      ESP Fit Center  593 is at  -1.424774  0.418352  4.907730
      ESP Fit Center  594 is at  -1.484924  0.000000  4.907730
      ESP Fit Center  595 is at  -1.424774 -0.418352  4.907730
      ESP Fit Center  596 is at   1.424774 -0.418352  4.907730
      ESP Fit Center  597 is at   1.746086 -0.000000  4.589504
      ESP Fit Center  598 is at   1.695348  0.417866  4.589504
      ESP Fit Center  599 is at  -1.695348  0.417866  4.589504
      ESP Fit Center  600 is at  -1.746086 -0.000000  4.589504
      ESP Fit Center  601 is at  -1.695348 -0.417866  4.589504
      ESP Fit Center  602 is at   1.695348 -0.417866  4.589504
      ESP Fit Center  603 is at   1.940147 -0.000000  4.226441
      ESP Fit Center  604 is at   1.894787  0.417074  4.226441
      ESP Fit Center  605 is at   1.760830  0.814647  4.226441
      ESP Fit Center  606 is at  -1.662429  1.000250  4.226441
      ESP Fit Center  607 is at  -1.838586  0.619492  4.226441
      ESP Fit Center  608 is at  -1.928774  0.209767  4.226441
      ESP Fit Center  609 is at  -1.928774 -0.209767  4.226441
      ESP Fit Center  610 is at  -1.838586 -0.619492  4.226441
      ESP Fit Center  611 is at  -1.662429 -1.000250  4.226441
      ESP Fit Center  612 is at   1.760830 -0.814647  4.226441
      ESP Fit Center  613 is at   1.894787 -0.417074  4.226441
      ESP Fit Center  614 is at   2.059649 -0.000000  3.832496
      ESP Fit Center  615 is at   2.017488  0.414604  3.832496
      ESP Fit Center  616 is at   1.892731  0.812235  3.832496
      ESP Fit Center  617 is at   1.690485  1.176612  3.832496
      ESP Fit Center  618 is at  -1.800847  0.999552  3.832496
      ESP Fit Center  619 is at  -1.965192  0.616583  3.832496
      ESP Fit Center  620 is at  -2.049082  0.208371  3.832496
      ESP Fit Center  621 is at  -2.049082 -0.208371  3.832496
      ESP Fit Center  622 is at  -1.965192 -0.616583  3.832496
      ESP Fit Center  623 is at  -1.800847 -0.999552  3.832496
      ESP Fit Center  624 is at   1.690485 -1.176612  3.832496
      ESP Fit Center  625 is at   1.892731 -0.812235  3.832496
      ESP Fit Center  626 is at   2.017488 -0.414604  3.832496
      ESP Fit Center  627 is at   2.100000 -0.000000  3.422806
      ESP Fit Center  628 is at   2.059649  0.409690  3.422806
      ESP Fit Center  629 is at   1.940147  0.803635  3.422806
      ESP Fit Center  630 is at   1.746086  1.166697  3.422806
      ESP Fit Center  631 is at   1.484924  1.484924  3.422806
      ESP Fit Center  632 is at  -1.484924  1.484924  3.422806
      ESP Fit Center  633 is at  -1.746086  1.166697  3.422806
      ESP Fit Center  634 is at  -1.940147  0.803635  3.422806
      ESP Fit Center  635 is at  -2.059649  0.409690  3.422806
      ESP Fit Center  636 is at  -2.100000  0.000000  3.422806
      ESP Fit Center  637 is at  -2.059649 -0.409690  3.422806
      ESP Fit Center  638 is at  -1.940147 -0.803635  3.422806
      ESP Fit Center  639 is at  -1.746086 -1.166697  3.422806
      ESP Fit Center  640 is at  -1.484924 -1.484924  3.422806
      ESP Fit Center  641 is at   1.484924 -1.484924  3.422806
      ESP Fit Center  642 is at   1.746086 -1.166697  3.422806
      ESP Fit Center  643 is at   1.940147 -0.803635  3.422806
      ESP Fit Center  644 is at   2.059649 -0.409690  3.422806
      ESP Fit Center  645 is at   2.059649 -0.000000  3.013116
      ESP Fit Center  646 is at   2.017488  0.414604  3.013116
      ESP Fit Center  647 is at   1.892731  0.812235  3.013116
      ESP Fit Center  648 is at   1.690485  1.176612  3.013116
      ESP Fit Center  649 is at   1.419030  1.492819  3.013116
      ESP Fit Center  650 is at  -1.260724  1.628721  3.013116
      ESP Fit Center  651 is at  -1.562775  1.341599  3.013116
      ESP Fit Center  652 is at  -1.800847  0.999552  3.013116
      ESP Fit Center  653 is at  -1.965192  0.616583  3.013116
      ESP Fit Center  654 is at  -2.049082  0.208371  3.013116
      ESP Fit Center  655 is at  -2.049082 -0.208371  3.013116
      ESP Fit Center  656 is at  -1.965192 -0.616583  3.013116
      ESP Fit Center  657 is at  -1.800847 -0.999552  3.013116
      ESP Fit Center  658 is at  -1.562775 -1.341599  3.013116
      ESP Fit Center  659 is at  -1.260724 -1.628721  3.013116
      ESP Fit Center  660 is at   1.419030 -1.492819  3.013116
      ESP Fit Center  661 is at   1.690485 -1.176612  3.013116
      ESP Fit Center  662 is at   1.892731 -0.812235  3.013116
      ESP Fit Center  663 is at   2.017488 -0.414604  3.013116
      ESP Fit Center  664 is at  -0.000000  0.848501  5.616990
      ESP Fit Center  665 is at   0.434816  0.848501  5.559745
      ESP Fit Center  666 is at   0.217408  1.225063  5.559745
      ESP Fit Center  667 is at  -0.217408  1.225063  5.559745
      ESP Fit Center  668 is at  -0.434816  0.848501  5.559745
      ESP Fit Center  669 is at  -0.217408  0.471939  5.559745
      ESP Fit Center  670 is at   0.217408  0.471939  5.559745
      ESP Fit Center  671 is at   0.840000  0.848501  5.391913
      ESP Fit Center  672 is at   0.727461  1.268501  5.391913
      ESP Fit Center  673 is at   0.420000  1.575962  5.391913
      ESP Fit Center  674 is at   0.000000  1.688501  5.391913
      ESP Fit Center  675 is at  -0.420000  1.575962  5.391913
      ESP Fit Center  676 is at  -0.727461  1.268501  5.391913
      ESP Fit Center  677 is at  -0.840000  0.848501  5.391913
      ESP Fit Center  678 is at  -0.727461  0.428501  5.391913
      ESP Fit Center  679 is at   0.727461  0.428501  5.391913
      ESP Fit Center  680 is at   1.187939  0.848501  5.124929
      ESP Fit Center  681 is at   1.107720  1.277634  5.124929
      ESP Fit Center  682 is at   0.877898  1.648811  5.124929
      ESP Fit Center  683 is at   0.529510  1.911901  5.124929
      ESP Fit Center  684 is at   0.109609  2.031373  5.124929
      ESP Fit Center  685 is at  -0.325095  1.991092  5.124929
      ESP Fit Center  686 is at  -0.715893  1.796497  5.124929
      ESP Fit Center  687 is at  -1.010006  1.473871  5.124929
      ESP Fit Center  688 is at  -1.167712  1.066784  5.124929
      ESP Fit Center  689 is at  -1.167712  0.630218  5.124929
      ESP Fit Center  690 is at   1.454923  0.848501  4.776990
      ESP Fit Center  691 is at   1.390285  1.277347  4.776990
      ESP Fit Center  692 is at   1.202114  1.668088  4.776990
      ESP Fit Center  693 is at   0.907129  1.986005  4.776990
      ESP Fit Center  694 is at   0.531543  2.202850  4.776990
      ESP Fit Center  695 is at   0.108727  2.299355  4.776990
      ESP Fit Center  696 is at  -0.323751  2.266946  4.776990
      ESP Fit Center  697 is at  -0.727461  2.108501  4.776990
      ESP Fit Center  698 is at  -1.066534  1.838100  4.776990
      ESP Fit Center  699 is at  -1.310840  1.479768  4.776990
      ESP Fit Center  700 is at  -1.438672  1.065346  4.776990
      ESP Fit Center  701 is at   1.567461  1.268501  4.371806
      ESP Fit Center  702 is at   1.405347  1.659879  4.371806
      ESP Fit Center  703 is at   1.147461  1.995962  4.371806
      ESP Fit Center  704 is at   0.811378  2.253848  4.371806
      ESP Fit Center  705 is at   0.420000  2.415962  4.371806
      ESP Fit Center  706 is at   0.000000  2.471256  4.371806
      ESP Fit Center  707 is at  -0.420000  2.415962  4.371806
      ESP Fit Center  708 is at  -0.811378  2.253848  4.371806
      ESP Fit Center  709 is at  -1.147461  1.995962  4.371806
      ESP Fit Center  710 is at  -1.405347  1.659879  4.371806
      ESP Fit Center  711 is at  -1.567461  1.268501  4.371806
      ESP Fit Center  712 is at   1.627220  1.266300  3.936990
      ESP Fit Center  713 is at   1.472195  1.657847  3.936990
      ESP Fit Center  714 is at   1.224667  1.998540  3.936990
      ESP Fit Center  715 is at   0.900189  2.266972  3.936990
      ESP Fit Center  716 is at   0.519149  2.446276  3.936990
      ESP Fit Center  717 is at   0.105488  2.525186  3.936990
      ESP Fit Center  718 is at  -0.314801  2.498744  3.936990
      ESP Fit Center  719 is at  -0.715309  2.368610  3.936990
      ESP Fit Center  720 is at  -1.070872  2.142963  3.936990
      ESP Fit Center  721 is at  -1.359149  1.835980  3.936990
      ESP Fit Center  722 is at  -1.562024  1.466950  3.936990
      ESP Fit Center  723 is at   1.405347  1.659879  3.502174
      ESP Fit Center  724 is at   1.147461  1.995962  3.502174
      ESP Fit Center  725 is at   0.811378  2.253848  3.502174
      ESP Fit Center  726 is at   0.420000  2.415962  3.502174
      ESP Fit Center  727 is at  -0.420000  2.415962  3.502174
      ESP Fit Center  728 is at  -0.811378  2.253848  3.502174
      ESP Fit Center  729 is at  -1.147461  1.995962  3.502174
      ESP Fit Center  730 is at  -1.405347  1.659879  3.502174
      ESP Fit Center  731 is at  -0.000000 -0.848501  5.616990
      ESP Fit Center  732 is at   0.434816 -0.848501  5.559745
      ESP Fit Center  733 is at   0.217408 -0.471939  5.559745
      ESP Fit Center  734 is at  -0.217408 -0.471939  5.559745
      ESP Fit Center  735 is at  -0.434816 -0.848501  5.559745
      ESP Fit Center  736 is at  -0.217408 -1.225063  5.559745
      ESP Fit Center  737 is at   0.217408 -1.225063  5.559745
      ESP Fit Center  738 is at   0.840000 -0.848501  5.391913
      ESP Fit Center  739 is at   0.727461 -0.428501  5.391913
      ESP Fit Center  740 is at  -0.727461 -0.428501  5.391913
      ESP Fit Center  741 is at  -0.840000 -0.848501  5.391913
      ESP Fit Center  742 is at  -0.727461 -1.268501  5.391913
      ESP Fit Center  743 is at  -0.420000 -1.575962  5.391913
      ESP Fit Center  744 is at  -0.000000 -1.688501  5.391913
      ESP Fit Center  745 is at   0.420000 -1.575962  5.391913
      ESP Fit Center  746 is at   0.727461 -1.268501  5.391913
      ESP Fit Center  747 is at   1.187939 -0.848501  5.124929
      ESP Fit Center  748 is at  -1.167712 -0.630218  5.124929
      ESP Fit Center  749 is at  -1.167712 -1.066784  5.124929
      ESP Fit Center  750 is at  -1.010006 -1.473871  5.124929
      ESP Fit Center  751 is at  -0.715893 -1.796497  5.124929
      ESP Fit Center  752 is at  -0.325095 -1.991092  5.124929
      ESP Fit Center  753 is at   0.109609 -2.031373  5.124929
      ESP Fit Center  754 is at   0.529510 -1.911901  5.124929
      ESP Fit Center  755 is at   0.877898 -1.648811  5.124929
      ESP Fit Center  756 is at   1.107720 -1.277634  5.124929
      ESP Fit Center  757 is at   1.454923 -0.848501  4.776990
      ESP Fit Center  758 is at  -1.438672 -1.065346  4.776990
      ESP Fit Center  759 is at  -1.310840 -1.479768  4.776990
      ESP Fit Center  760 is at  -1.066534 -1.838100  4.776990
      ESP Fit Center  761 is at  -0.727461 -2.108501  4.776990
      ESP Fit Center  762 is at  -0.323751 -2.266946  4.776990
      ESP Fit Center  763 is at   0.108727 -2.299355  4.776990
      ESP Fit Center  764 is at   0.531543 -2.202850  4.776990
      ESP Fit Center  765 is at   0.907129 -1.986005  4.776990
      ESP Fit Center  766 is at   1.202114 -1.668088  4.776990
      ESP Fit Center  767 is at   1.390285 -1.277347  4.776990
      ESP Fit Center  768 is at  -1.567461 -1.268501  4.371806
      ESP Fit Center  769 is at  -1.405347 -1.659879  4.371806
      ESP Fit Center  770 is at  -1.147461 -1.995962  4.371806
      ESP Fit Center  771 is at  -0.811378 -2.253848  4.371806
      ESP Fit Center  772 is at  -0.420000 -2.415962  4.371806
      ESP Fit Center  773 is at  -0.000000 -2.471256  4.371806
      ESP Fit Center  774 is at   0.420000 -2.415962  4.371806
      ESP Fit Center  775 is at   0.811378 -2.253848  4.371806
      ESP Fit Center  776 is at   1.147461 -1.995962  4.371806
      ESP Fit Center  777 is at   1.405347 -1.659879  4.371806
      ESP Fit Center  778 is at   1.567461 -1.268501  4.371806
      ESP Fit Center  779 is at  -1.562024 -1.466950  3.936990
      ESP Fit Center  780 is at  -1.359149 -1.835980  3.936990
      ESP Fit Center  781 is at  -1.070872 -2.142963  3.936990
      ESP Fit Center  782 is at  -0.715309 -2.368610  3.936990
      ESP Fit Center  783 is at  -0.314801 -2.498744  3.936990
      ESP Fit Center  784 is at   0.105488 -2.525186  3.936990
      ESP Fit Center  785 is at   0.519149 -2.446276  3.936990
      ESP Fit Center  786 is at   0.900189 -2.266972  3.936990
      ESP Fit Center  787 is at   1.224667 -1.998540  3.936990
      ESP Fit Center  788 is at   1.472195 -1.657847  3.936990
      ESP Fit Center  789 is at   1.627220 -1.266300  3.936990
      ESP Fit Center  790 is at  -1.405347 -1.659879  3.502174
      ESP Fit Center  791 is at  -1.147461 -1.995962  3.502174
      ESP Fit Center  792 is at  -0.811378 -2.253848  3.502174
      ESP Fit Center  793 is at  -0.420000 -2.415962  3.502174
      ESP Fit Center  794 is at   0.420000 -2.415962  3.502174
      ESP Fit Center  795 is at   0.811378 -2.253848  3.502174
      ESP Fit Center  796 is at   1.147461 -1.995962  3.502174
      ESP Fit Center  797 is at   1.405347 -1.659879  3.502174
      ESP Fit Center  798 is at   1.644083  1.479516 -1.733677
      ESP Fit Center  799 is at   1.487452  1.875120 -1.733677
      ESP Fit Center  800 is at   1.237358  2.219344 -1.733677
      ESP Fit Center  801 is at  -1.373233  2.055099 -1.733677
      ESP Fit Center  802 is at  -1.578212  1.682245 -1.733677
      ESP Fit Center  803 is at  -1.684025  1.270129 -1.733677
      ESP Fit Center  804 is at   1.864071  1.057387 -2.108004
      ESP Fit Center  805 is at   1.817335  1.472182 -2.108004
      ESP Fit Center  806 is at   1.679470  1.866177 -2.108004
      ESP Fit Center  807 is at   1.457389  2.219616 -2.108004
      ESP Fit Center  808 is at   1.162229  2.514776 -2.108004
      ESP Fit Center  809 is at   0.808790  2.736857 -2.108004
      ESP Fit Center  810 is at   0.414795  2.874722 -2.108004
      ESP Fit Center  811 is at   0.000000  2.921458 -2.108004
      ESP Fit Center  812 is at  -0.414795  2.874722 -2.108004
      ESP Fit Center  813 is at  -0.808790  2.736857 -2.108004
      ESP Fit Center  814 is at  -1.162229  2.514776 -2.108004
      ESP Fit Center  815 is at  -1.457389  2.219616 -2.108004
      ESP Fit Center  816 is at  -1.679470  1.866177 -2.108004
      ESP Fit Center  817 is at  -1.817335  1.472182 -2.108004
      ESP Fit Center  818 is at  -1.864071  1.057387 -2.108004
      ESP Fit Center  819 is at   1.949263  1.057387 -2.508801
      ESP Fit Center  820 is at   1.903690  1.476421 -2.508801
      ESP Fit Center  821 is at   1.769103  1.875861 -2.508801
      ESP Fit Center  822 is at   1.551795  2.237031 -2.508801
      ESP Fit Center  823 is at   1.261926  2.543041 -2.508801
      ESP Fit Center  824 is at   0.913051  2.779584 -2.508801
      ESP Fit Center  825 is at   0.521483  2.935599 -2.508801
      ESP Fit Center  826 is at   0.105531  3.003791 -2.508801
      ESP Fit Center  827 is at  -0.315356  2.980971 -2.508801
      ESP Fit Center  828 is at  -0.721497  2.868207 -2.508801
      ESP Fit Center  829 is at  -1.093901  2.670770 -2.508801
      ESP Fit Center  830 is at  -1.415156  2.397894 -2.508801
      ESP Fit Center  831 is at  -1.670240  2.062337 -2.508801
      ESP Fit Center  832 is at  -1.847225  1.679790 -2.508801
      ESP Fit Center  833 is at  -1.937836  1.268139 -2.508801
      ESP Fit Center  834 is at  -1.937836  0.846635 -2.508801
      ESP Fit Center  835 is at   1.949263  1.057387 -2.918553
      ESP Fit Center  836 is at   1.903690  1.476421 -2.918553
      ESP Fit Center  837 is at   1.769103  1.875861 -2.918553
      ESP Fit Center  838 is at   1.551795  2.237031 -2.918553
      ESP Fit Center  839 is at   1.261926  2.543041 -2.918553
      ESP Fit Center  840 is at   0.913051  2.779584 -2.918553
      ESP Fit Center  841 is at   0.521483  2.935599 -2.918553
      ESP Fit Center  842 is at   0.105531  3.003791 -2.918553
      ESP Fit Center  843 is at  -0.315356  2.980971 -2.918553
      ESP Fit Center  844 is at  -0.721497  2.868207 -2.918553
      ESP Fit Center  845 is at  -1.093901  2.670770 -2.918553
      ESP Fit Center  846 is at  -1.415156  2.397894 -2.918553
      ESP Fit Center  847 is at  -1.670240  2.062337 -2.918553
      ESP Fit Center  848 is at  -1.847225  1.679790 -2.918553
      ESP Fit Center  849 is at  -1.937836  1.268139 -2.918553
      ESP Fit Center  850 is at  -1.937836  0.846635 -2.918553
      ESP Fit Center  851 is at   1.903690  0.638353 -2.918553
      ESP Fit Center  852 is at   1.864071  1.057387 -3.319350
      ESP Fit Center  853 is at   1.817335  1.472182 -3.319350
      ESP Fit Center  854 is at   1.679470  1.866177 -3.319350
      ESP Fit Center  855 is at   1.457389  2.219616 -3.319350
      ESP Fit Center  856 is at   1.162229  2.514776 -3.319350
      ESP Fit Center  857 is at   0.808790  2.736857 -3.319350
      ESP Fit Center  858 is at   0.414795  2.874722 -3.319350
      ESP Fit Center  859 is at   0.000000  2.921458 -3.319350
      ESP Fit Center  860 is at  -0.414795  2.874722 -3.319350
      ESP Fit Center  861 is at  -0.808790  2.736857 -3.319350
      ESP Fit Center  862 is at  -1.162229  2.514776 -3.319350
      ESP Fit Center  863 is at  -1.457389  2.219616 -3.319350
      ESP Fit Center  864 is at  -1.679470  1.866177 -3.319350
      ESP Fit Center  865 is at  -1.817335  1.472182 -3.319350
      ESP Fit Center  866 is at  -1.864071  1.057387 -3.319350
      ESP Fit Center  867 is at  -1.817335  0.642592 -3.319350
      ESP Fit Center  868 is at   1.817335  0.642592 -3.319350
      ESP Fit Center  869 is at   1.697410  1.057387 -3.693677
      ESP Fit Center  870 is at   1.644083  1.479516 -3.693677
      ESP Fit Center  871 is at   1.487452  1.875120 -3.693677
      ESP Fit Center  872 is at   1.237358  2.219344 -3.693677
      ESP Fit Center  873 is at   0.909518  2.490557 -3.693677
      ESP Fit Center  874 is at   0.524528  2.671720 -3.693677
      ESP Fit Center  875 is at   0.106581  2.751447 -3.693677
      ESP Fit Center  876 is at  -0.318063  2.724731 -3.693677
      ESP Fit Center  877 is at  -0.722722  2.593249 -3.693677
      ESP Fit Center  878 is at  -1.081970  2.365264 -3.693677
      ESP Fit Center  879 is at  -1.373233  2.055099 -3.693677
      ESP Fit Center  880 is at  -1.578212  1.682245 -3.693677
      ESP Fit Center  881 is at  -1.684025  1.270129 -3.693677
      ESP Fit Center  882 is at  -1.684025  0.844645 -3.693677
      ESP Fit Center  883 is at  -1.578212  0.432529 -3.693677
      ESP Fit Center  884 is at   1.487452  0.239654 -3.693677
      ESP Fit Center  885 is at   1.644083  0.635258 -3.693677
      ESP Fit Center  886 is at   1.456564  1.057387 -4.025173
      ESP Fit Center  887 is at   1.397563  1.467748 -4.025173
      ESP Fit Center  888 is at   1.225339  1.844865 -4.025173
      ESP Fit Center  889 is at   0.953846  2.158185 -4.025173
      ESP Fit Center  890 is at   0.605078  2.382324 -4.025173
      ESP Fit Center  891 is at   0.207291  2.499125 -4.025173
      ESP Fit Center  892 is at  -0.207291  2.499125 -4.025173
      ESP Fit Center  893 is at  -0.605078  2.382324 -4.025173
      ESP Fit Center  894 is at  -0.953846  2.158185 -4.025173
      ESP Fit Center  895 is at  -1.225339  1.844865 -4.025173
      ESP Fit Center  896 is at  -1.397563  1.467748 -4.025173
      ESP Fit Center  897 is at  -1.456564  1.057387 -4.025173
      ESP Fit Center  898 is at  -1.397563  0.647026 -4.025173
      ESP Fit Center  899 is at  -1.225339  0.269909 -4.025173
      ESP Fit Center  900 is at   1.225339  0.269909 -4.025173
      ESP Fit Center  901 is at   1.397563  0.647026 -4.025173
      ESP Fit Center  902 is at   1.152059  1.057387 -4.299350
      ESP Fit Center  903 is at   1.074263  1.473559 -4.299350
      ESP Fit Center  904 is at   0.851382  1.833524 -4.299350
      ESP Fit Center  905 is at   0.513517  2.088668 -4.299350
      ESP Fit Center  906 is at   0.106299  2.204532 -4.299350
      ESP Fit Center  907 is at  -0.315276  2.165467 -4.299350
      ESP Fit Center  908 is at  -0.694271  1.976750 -4.299350
      ESP Fit Center  909 is at  -0.979500  1.663868 -4.299350
      ESP Fit Center  910 is at  -1.132443  1.269077 -4.299350
      ESP Fit Center  911 is at  -1.132443  0.845697 -4.299350
      ESP Fit Center  912 is at  -0.979500  0.450906 -4.299350
      ESP Fit Center  913 is at  -0.694271  0.138024 -4.299350
      ESP Fit Center  914 is at   0.513517  0.026106 -4.299350
      ESP Fit Center  915 is at   0.851382  0.281250 -4.299350
      ESP Fit Center  916 is at   1.074263  0.641215 -4.299350
      ESP Fit Center  917 is at   0.797204  1.057387 -4.504226
      ESP Fit Center  918 is at   0.690399  1.455989 -4.504226
      ESP Fit Center  919 is at   0.398602  1.747786 -4.504226
      ESP Fit Center  920 is at   0.000000  1.854591 -4.504226
      ESP Fit Center  921 is at  -0.398602  1.747786 -4.504226
      ESP Fit Center  922 is at  -0.690399  1.455989 -4.504226
      ESP Fit Center  923 is at  -0.797204  1.057387 -4.504226
      ESP Fit Center  924 is at  -0.690399  0.658785 -4.504226
      ESP Fit Center  925 is at  -0.398602  0.366988 -4.504226
      ESP Fit Center  926 is at  -0.000000  0.260183 -4.504226
      ESP Fit Center  927 is at   0.398602  0.366988 -4.504226
      ESP Fit Center  928 is at   0.690399  0.658785 -4.504226
      ESP Fit Center  929 is at   0.407507  1.057387 -4.630846
      ESP Fit Center  930 is at   0.203753  1.410298 -4.630846
      ESP Fit Center  931 is at  -0.203753  1.410298 -4.630846
      ESP Fit Center  932 is at  -0.407507  1.057387 -4.630846
      ESP Fit Center  933 is at  -0.203753  0.704476 -4.630846
      ESP Fit Center  934 is at   0.203753  0.704476 -4.630846
      ESP Fit Center  935 is at   0.000000  1.057387 -4.673677
      ESP Fit Center  936 is at  -1.684025 -1.270129 -1.733677
      ESP Fit Center  937 is at  -1.578212 -1.682245 -1.733677
      ESP Fit Center  938 is at  -1.373233 -2.055099 -1.733677
      ESP Fit Center  939 is at   1.237358 -2.219344 -1.733677
      ESP Fit Center  940 is at   1.487452 -1.875120 -1.733677
      ESP Fit Center  941 is at   1.644083 -1.479516 -1.733677
      ESP Fit Center  942 is at   1.864071 -1.057387 -2.108004
      ESP Fit Center  943 is at  -1.864071 -1.057387 -2.108004
      ESP Fit Center  944 is at  -1.817335 -1.472182 -2.108004
      ESP Fit Center  945 is at  -1.679470 -1.866177 -2.108004
      ESP Fit Center  946 is at  -1.457389 -2.219616 -2.108004
      ESP Fit Center  947 is at  -1.162229 -2.514776 -2.108004
      ESP Fit Center  948 is at  -0.808790 -2.736857 -2.108004
      ESP Fit Center  949 is at  -0.414795 -2.874722 -2.108004
      ESP Fit Center  950 is at  -0.000000 -2.921458 -2.108004
      ESP Fit Center  951 is at   0.414795 -2.874722 -2.108004
      ESP Fit Center  952 is at   0.808790 -2.736857 -2.108004
      ESP Fit Center  953 is at   1.162229 -2.514776 -2.108004
      ESP Fit Center  954 is at   1.457389 -2.219616 -2.108004
      ESP Fit Center  955 is at   1.679470 -1.866177 -2.108004
      ESP Fit Center  956 is at   1.817335 -1.472182 -2.108004
      ESP Fit Center  957 is at   1.949263 -1.057387 -2.508801
      ESP Fit Center  958 is at  -1.937836 -0.846635 -2.508801
      ESP Fit Center  959 is at  -1.937836 -1.268139 -2.508801
      ESP Fit Center  960 is at  -1.847225 -1.679790 -2.508801
      ESP Fit Center  961 is at  -1.670240 -2.062337 -2.508801
      ESP Fit Center  962 is at  -1.415156 -2.397894 -2.508801
      ESP Fit Center  963 is at  -1.093901 -2.670770 -2.508801
      ESP Fit Center  964 is at  -0.721497 -2.868207 -2.508801
      ESP Fit Center  965 is at  -0.315356 -2.980971 -2.508801
      ESP Fit Center  966 is at   0.105531 -3.003791 -2.508801
      ESP Fit Center  967 is at   0.521483 -2.935599 -2.508801
      ESP Fit Center  968 is at   0.913051 -2.779584 -2.508801
      ESP Fit Center  969 is at   1.261926 -2.543041 -2.508801
      ESP Fit Center  970 is at   1.551795 -2.237031 -2.508801
      ESP Fit Center  971 is at   1.769103 -1.875861 -2.508801
      ESP Fit Center  972 is at   1.903690 -1.476421 -2.508801
      ESP Fit Center  973 is at   1.949263 -1.057387 -2.918553
      ESP Fit Center  974 is at   1.903690 -0.638353 -2.918553
      ESP Fit Center  975 is at  -1.937836 -0.846635 -2.918553
      ESP Fit Center  976 is at  -1.937836 -1.268139 -2.918553
      ESP Fit Center  977 is at  -1.847225 -1.679790 -2.918553
      ESP Fit Center  978 is at  -1.670240 -2.062337 -2.918553
      ESP Fit Center  979 is at  -1.415156 -2.397894 -2.918553
      ESP Fit Center  980 is at  -1.093901 -2.670770 -2.918553
      ESP Fit Center  981 is at  -0.721497 -2.868207 -2.918553
      ESP Fit Center  982 is at  -0.315356 -2.980971 -2.918553
      ESP Fit Center  983 is at   0.105531 -3.003791 -2.918553
      ESP Fit Center  984 is at   0.521483 -2.935599 -2.918553
      ESP Fit Center  985 is at   0.913051 -2.779584 -2.918553
      ESP Fit Center  986 is at   1.261926 -2.543041 -2.918553
      ESP Fit Center  987 is at   1.551795 -2.237031 -2.918553
      ESP Fit Center  988 is at   1.769103 -1.875861 -2.918553
      ESP Fit Center  989 is at   1.903690 -1.476421 -2.918553
      ESP Fit Center  990 is at   1.864071 -1.057387 -3.319350
      ESP Fit Center  991 is at   1.817335 -0.642592 -3.319350
      ESP Fit Center  992 is at  -1.817335 -0.642592 -3.319350
      ESP Fit Center  993 is at  -1.864071 -1.057387 -3.319350
      ESP Fit Center  994 is at  -1.817335 -1.472182 -3.319350
      ESP Fit Center  995 is at  -1.679470 -1.866177 -3.319350
      ESP Fit Center  996 is at  -1.457389 -2.219616 -3.319350
      ESP Fit Center  997 is at  -1.162229 -2.514776 -3.319350
      ESP Fit Center  998 is at  -0.808790 -2.736857 -3.319350
      ESP Fit Center  999 is at  -0.414795 -2.874722 -3.319350
      ESP Fit Center 1000 is at  -0.000000 -2.921458 -3.319350
      ESP Fit Center 1001 is at   0.414795 -2.874722 -3.319350
      ESP Fit Center 1002 is at   0.808790 -2.736857 -3.319350
      ESP Fit Center 1003 is at   1.162229 -2.514776 -3.319350
      ESP Fit Center 1004 is at   1.457389 -2.219616 -3.319350
      ESP Fit Center 1005 is at   1.679470 -1.866177 -3.319350
      ESP Fit Center 1006 is at   1.817335 -1.472182 -3.319350
      ESP Fit Center 1007 is at   1.697410 -1.057387 -3.693677
      ESP Fit Center 1008 is at   1.644083 -0.635258 -3.693677
      ESP Fit Center 1009 is at   1.487452 -0.239654 -3.693677
      ESP Fit Center 1010 is at  -1.578212 -0.432529 -3.693677
      ESP Fit Center 1011 is at  -1.684025 -0.844645 -3.693677
      ESP Fit Center 1012 is at  -1.684025 -1.270129 -3.693677
      ESP Fit Center 1013 is at  -1.578212 -1.682245 -3.693677
      ESP Fit Center 1014 is at  -1.373233 -2.055099 -3.693677
      ESP Fit Center 1015 is at  -1.081970 -2.365264 -3.693677
      ESP Fit Center 1016 is at  -0.722722 -2.593249 -3.693677
      ESP Fit Center 1017 is at  -0.318063 -2.724731 -3.693677
      ESP Fit Center 1018 is at   0.106581 -2.751447 -3.693677
      ESP Fit Center 1019 is at   0.524528 -2.671720 -3.693677
      ESP Fit Center 1020 is at   0.909518 -2.490557 -3.693677
      ESP Fit Center 1021 is at   1.237358 -2.219344 -3.693677
      ESP Fit Center 1022 is at   1.487452 -1.875120 -3.693677
      ESP Fit Center 1023 is at   1.644083 -1.479516 -3.693677
      ESP Fit Center 1024 is at   1.456564 -1.057387 -4.025173
      ESP Fit Center 1025 is at   1.397563 -0.647026 -4.025173
      ESP Fit Center 1026 is at   1.225339 -0.269909 -4.025173
      ESP Fit Center 1027 is at  -1.225339 -0.269909 -4.025173
      ESP Fit Center 1028 is at  -1.397563 -0.647026 -4.025173
      ESP Fit Center 1029 is at  -1.456564 -1.057387 -4.025173
      ESP Fit Center 1030 is at  -1.397563 -1.467748 -4.025173
      ESP Fit Center 1031 is at  -1.225339 -1.844865 -4.025173
      ESP Fit Center 1032 is at  -0.953846 -2.158185 -4.025173
      ESP Fit Center 1033 is at  -0.605078 -2.382324 -4.025173
      ESP Fit Center 1034 is at  -0.207291 -2.499125 -4.025173
      ESP Fit Center 1035 is at   0.207291 -2.499125 -4.025173
      ESP Fit Center 1036 is at   0.605078 -2.382324 -4.025173
      ESP Fit Center 1037 is at   0.953846 -2.158185 -4.025173
      ESP Fit Center 1038 is at   1.225339 -1.844865 -4.025173
      ESP Fit Center 1039 is at   1.397563 -1.467748 -4.025173
      ESP Fit Center 1040 is at   1.152059 -1.057387 -4.299350
      ESP Fit Center 1041 is at   1.074263 -0.641215 -4.299350
      ESP Fit Center 1042 is at   0.851382 -0.281250 -4.299350
      ESP Fit Center 1043 is at   0.513517 -0.026106 -4.299350
      ESP Fit Center 1044 is at  -0.694271 -0.138024 -4.299350
      ESP Fit Center 1045 is at  -0.979500 -0.450906 -4.299350
      ESP Fit Center 1046 is at  -1.132443 -0.845697 -4.299350
      ESP Fit Center 1047 is at  -1.132443 -1.269077 -4.299350
      ESP Fit Center 1048 is at  -0.979500 -1.663868 -4.299350
      ESP Fit Center 1049 is at  -0.694271 -1.976750 -4.299350
      ESP Fit Center 1050 is at  -0.315276 -2.165467 -4.299350
      ESP Fit Center 1051 is at   0.106299 -2.204532 -4.299350
      ESP Fit Center 1052 is at   0.513517 -2.088668 -4.299350
      ESP Fit Center 1053 is at   0.851382 -1.833524 -4.299350
      ESP Fit Center 1054 is at   1.074263 -1.473559 -4.299350
      ESP Fit Center 1055 is at   0.797204 -1.057387 -4.504226
      ESP Fit Center 1056 is at   0.690399 -0.658785 -4.504226
      ESP Fit Center 1057 is at   0.398602 -0.366988 -4.504226
      ESP Fit Center 1058 is at  -0.000000 -0.260183 -4.504226
      ESP Fit Center 1059 is at  -0.398602 -0.366988 -4.504226
      ESP Fit Center 1060 is at  -0.690399 -0.658785 -4.504226
      ESP Fit Center 1061 is at  -0.797204 -1.057387 -4.504226
      ESP Fit Center 1062 is at  -0.690399 -1.455989 -4.504226
      ESP Fit Center 1063 is at  -0.398602 -1.747786 -4.504226
      ESP Fit Center 1064 is at  -0.000000 -1.854591 -4.504226
      ESP Fit Center 1065 is at   0.398602 -1.747786 -4.504226
      ESP Fit Center 1066 is at   0.690399 -1.455989 -4.504226
      ESP Fit Center 1067 is at   0.407507 -1.057387 -4.630846
      ESP Fit Center 1068 is at   0.203753 -0.704476 -4.630846
      ESP Fit Center 1069 is at  -0.203753 -0.704476 -4.630846
      ESP Fit Center 1070 is at  -0.407507 -1.057387 -4.630846
      ESP Fit Center 1071 is at  -0.203753 -1.410298 -4.630846
      ESP Fit Center 1072 is at   0.203753 -1.410298 -4.630846
      ESP Fit Center 1073 is at   0.000000 -1.057387 -4.673677
      ESP Fit Center 1074 is at   2.363539  1.205317  0.392516
      ESP Fit Center 1075 is at   2.325556  1.627343  0.392516
      ESP Fit Center 1076 is at   2.212827  2.035805  0.392516
      ESP Fit Center 1077 is at   2.028977  2.417574  0.392516
      ESP Fit Center 1078 is at   1.779913  2.760381  0.392516
      ESP Fit Center 1079 is at   1.473642  3.053206  0.392516
      ESP Fit Center 1080 is at  -1.302066  3.177863  0.392516
      ESP Fit Center 1081 is at  -1.633353  2.913671  0.392516
      ESP Fit Center 1082 is at  -1.912143  2.594570  0.392516
      ESP Fit Center 1083 is at  -2.129475  2.230818  0.392516
      ESP Fit Center 1084 is at  -2.278363  1.834105  0.392516
      ESP Fit Center 1085 is at  -2.354024  1.417183  0.392516
      ESP Fit Center 1086 is at  -2.354024  0.993451  0.392516
      ESP Fit Center 1087 is at  -2.278363  0.576529  0.392516
      ESP Fit Center 1088 is at  -2.129475  0.179816  0.392516
      ESP Fit Center 1089 is at   2.212827  0.374829  0.392516
      ESP Fit Center 1090 is at   2.325556  0.783291  0.392516
      ESP Fit Center 1091 is at   2.400000  1.205317 -0.024240
      ESP Fit Center 1092 is at   2.363539  1.622073 -0.024240
      ESP Fit Center 1093 is at   2.255262  2.026165 -0.024240
      ESP Fit Center 1094 is at   2.078461  2.405317 -0.024240
      ESP Fit Center 1095 is at   1.838507  2.748007 -0.024240
      ESP Fit Center 1096 is at  -1.838507  2.748007 -0.024240
      ESP Fit Center 1097 is at  -2.078461  2.405317 -0.024240
      ESP Fit Center 1098 is at  -2.255262  2.026165 -0.024240
      ESP Fit Center 1099 is at  -2.363539  1.622073 -0.024240
      ESP Fit Center 1100 is at  -2.400000  1.205317 -0.024240
      ESP Fit Center 1101 is at  -2.363539  0.788561 -0.024240
      ESP Fit Center 1102 is at   2.363539  0.788561 -0.024240
      ESP Fit Center 1103 is at   2.363539  1.205317 -0.440996
      ESP Fit Center 1104 is at   2.325556  1.627343 -0.440996
      ESP Fit Center 1105 is at   2.212827  2.035805 -0.440996
      ESP Fit Center 1106 is at   2.028977  2.417574 -0.440996
      ESP Fit Center 1107 is at  -1.912143  2.594570 -0.440996
      ESP Fit Center 1108 is at  -2.129475  2.230818 -0.440996
      ESP Fit Center 1109 is at  -2.278363  1.834105 -0.440996
      ESP Fit Center 1110 is at  -2.354024  1.417183 -0.440996
      ESP Fit Center 1111 is at  -2.354024  0.993451 -0.440996
      ESP Fit Center 1112 is at   2.325556  0.783291 -0.440996
      ESP Fit Center 1113 is at   2.255262  1.205317 -0.845088
      ESP Fit Center 1114 is at   2.214507  1.632128 -0.845088
      ESP Fit Center 1115 is at   2.093713  2.043513 -0.845088
      ESP Fit Center 1116 is at   1.897247  2.424604 -0.845088
      ESP Fit Center 1117 is at  -2.004557  2.238738 -0.845088
      ESP Fit Center 1118 is at  -2.163908  1.840698 -0.845088
      ESP Fit Center 1119 is at  -2.245050  1.419693 -0.845088
      ESP Fit Center 1120 is at  -2.245050  0.990941 -0.845088
      ESP Fit Center 1121 is at   2.078461  1.205317 -1.224240
      ESP Fit Center 1122 is at   2.035915  1.623708 -1.224240
      ESP Fit Center 1123 is at   1.910018  2.024970 -1.224240
      ESP Fit Center 1124 is at  -1.817295  2.213998 -1.224240
      ESP Fit Center 1125 is at  -1.983141  1.827532 -1.224240
      ESP Fit Center 1126 is at  -2.067797  1.415591 -1.224240
      ESP Fit Center 1127 is at   2.363539 -1.205317  0.392516
      ESP Fit Center 1128 is at   2.325556 -0.783291  0.392516
      ESP Fit Center 1129 is at   2.212827 -0.374829  0.392516
      ESP Fit Center 1130 is at  -2.129475 -0.179816  0.392516
      ESP Fit Center 1131 is at  -2.278363 -0.576529  0.392516
      ESP Fit Center 1132 is at  -2.354024 -0.993451  0.392516
      ESP Fit Center 1133 is at  -2.354024 -1.417183  0.392516
      ESP Fit Center 1134 is at  -2.278363 -1.834105  0.392516
      ESP Fit Center 1135 is at  -2.129475 -2.230818  0.392516
      ESP Fit Center 1136 is at  -1.912143 -2.594570  0.392516
      ESP Fit Center 1137 is at  -1.633353 -2.913671  0.392516
      ESP Fit Center 1138 is at  -1.302066 -3.177863  0.392516
      ESP Fit Center 1139 is at   1.473642 -3.053206  0.392516
      ESP Fit Center 1140 is at   1.779913 -2.760381  0.392516
      ESP Fit Center 1141 is at   2.028977 -2.417574  0.392516
      ESP Fit Center 1142 is at   2.212827 -2.035805  0.392516
      ESP Fit Center 1143 is at   2.325556 -1.627343  0.392516
      ESP Fit Center 1144 is at   2.400000 -1.205317 -0.024240
      ESP Fit Center 1145 is at   2.363539 -0.788561 -0.024240
      ESP Fit Center 1146 is at  -2.363539 -0.788561 -0.024240
      ESP Fit Center 1147 is at  -2.400000 -1.205317 -0.024240
      ESP Fit Center 1148 is at  -2.363539 -1.622073 -0.024240
      ESP Fit Center 1149 is at  -2.255262 -2.026165 -0.024240
      ESP Fit Center 1150 is at  -2.078461 -2.405317 -0.024240
      ESP Fit Center 1151 is at  -1.838507 -2.748007 -0.024240
      ESP Fit Center 1152 is at   1.838507 -2.748007 -0.024240
      ESP Fit Center 1153 is at   2.078461 -2.405317 -0.024240
      ESP Fit Center 1154 is at   2.255262 -2.026165 -0.024240
      ESP Fit Center 1155 is at   2.363539 -1.622073 -0.024240
      ESP Fit Center 1156 is at   2.363539 -1.205317 -0.440996
      ESP Fit Center 1157 is at   2.325556 -0.783291 -0.440996
      ESP Fit Center 1158 is at  -2.354024 -0.993451 -0.440996
      ESP Fit Center 1159 is at  -2.354024 -1.417183 -0.440996
      ESP Fit Center 1160 is at  -2.278363 -1.834105 -0.440996
      ESP Fit Center 1161 is at  -2.129475 -2.230818 -0.440996
      ESP Fit Center 1162 is at  -1.912143 -2.594570 -0.440996
      ESP Fit Center 1163 is at   2.028977 -2.417574 -0.440996
      ESP Fit Center 1164 is at   2.212827 -2.035805 -0.440996
      ESP Fit Center 1165 is at   2.325556 -1.627343 -0.440996
      ESP Fit Center 1166 is at   2.255262 -1.205317 -0.845088
      ESP Fit Center 1167 is at  -2.245050 -0.990941 -0.845088
      ESP Fit Center 1168 is at  -2.245050 -1.419693 -0.845088
      ESP Fit Center 1169 is at  -2.163908 -1.840698 -0.845088
      ESP Fit Center 1170 is at  -2.004557 -2.238738 -0.845088
      ESP Fit Center 1171 is at   1.897247 -2.424604 -0.845088
      ESP Fit Center 1172 is at   2.093713 -2.043513 -0.845088
      ESP Fit Center 1173 is at   2.214507 -1.632128 -0.845088
      ESP Fit Center 1174 is at   2.078461 -1.205317 -1.224240
      ESP Fit Center 1175 is at  -2.067797 -1.415591 -1.224240
      ESP Fit Center 1176 is at  -1.983141 -1.827532 -1.224240
      ESP Fit Center 1177 is at  -1.817295 -2.213998 -1.224240
      ESP Fit Center 1178 is at   1.910018 -2.024970 -1.224240
      ESP Fit Center 1179 is at   2.035915 -1.623708 -1.224240
      ESP Fit Center 1180 is at   1.788949  1.631043  2.892988
      ESP Fit Center 1181 is at   1.642950  2.032174  2.892988
      ESP Fit Center 1182 is at  -1.727631  1.835860  2.892988
      ESP Fit Center 1183 is at   2.078461  1.207054  2.550298
      ESP Fit Center 1184 is at   2.035915  1.625445  2.550298
      ESP Fit Center 1185 is at   1.910018  2.026707  2.550298
      ESP Fit Center 1186 is at  -1.817295  2.215735  2.550298
      ESP Fit Center 1187 is at  -1.983141  1.829269  2.550298
      ESP Fit Center 1188 is at  -2.067797  1.417328  2.550298
      ESP Fit Center 1189 is at   2.255262  1.207054  2.171146
      ESP Fit Center 1190 is at   2.214507  1.633865  2.171146
      ESP Fit Center 1191 is at   2.093713  2.045250  2.171146
      ESP Fit Center 1192 is at   1.897247  2.426341  2.171146
      ESP Fit Center 1193 is at  -2.004557  2.240475  2.171146
      ESP Fit Center 1194 is at  -2.163908  1.842435  2.171146
      ESP Fit Center 1195 is at  -2.245050  1.421430  2.171146
      ESP Fit Center 1196 is at  -2.245050  0.992678  2.171146
      ESP Fit Center 1197 is at   2.363539  1.207054  1.767054
      ESP Fit Center 1198 is at   2.325556  1.629080  1.767054
      ESP Fit Center 1199 is at   2.212827  2.037542  1.767054
      ESP Fit Center 1200 is at   2.028977  2.419311  1.767054
      ESP Fit Center 1201 is at  -1.912143  2.596307  1.767054
      ESP Fit Center 1202 is at  -2.129475  2.232555  1.767054
      ESP Fit Center 1203 is at  -2.278363  1.835842  1.767054
      ESP Fit Center 1204 is at  -2.354024  1.418920  1.767054
      ESP Fit Center 1205 is at  -2.354024  0.995188  1.767054
      ESP Fit Center 1206 is at   2.325556  0.785028  1.767054
      ESP Fit Center 1207 is at   2.400000  1.207054  1.350298
      ESP Fit Center 1208 is at   2.363539  1.623810  1.350298
      ESP Fit Center 1209 is at   2.255262  2.027902  1.350298
      ESP Fit Center 1210 is at   2.078461  2.407054  1.350298
      ESP Fit Center 1211 is at   1.838507  2.749744  1.350298
      ESP Fit Center 1212 is at  -1.838507  2.749744  1.350298
      ESP Fit Center 1213 is at  -2.078461  2.407054  1.350298
      ESP Fit Center 1214 is at  -2.255262  2.027902  1.350298
      ESP Fit Center 1215 is at  -2.363539  1.623810  1.350298
      ESP Fit Center 1216 is at  -2.400000  1.207054  1.350298
      ESP Fit Center 1217 is at  -2.363539  0.790298  1.350298
      ESP Fit Center 1218 is at   2.363539  0.790298  1.350298
      ESP Fit Center 1219 is at   2.363539  1.207054  0.933542
      ESP Fit Center 1220 is at   2.325556  1.629080  0.933542
      ESP Fit Center 1221 is at   2.212827  2.037542  0.933542
      ESP Fit Center 1222 is at   2.028977  2.419311  0.933542
      ESP Fit Center 1223 is at   1.779913  2.762118  0.933542
      ESP Fit Center 1224 is at   1.473642  3.054943  0.933542
      ESP Fit Center 1225 is at  -1.633353  2.915408  0.933542
      ESP Fit Center 1226 is at  -1.912143  2.596307  0.933542
      ESP Fit Center 1227 is at  -2.129475  2.232555  0.933542
      ESP Fit Center 1228 is at  -2.278363  1.835842  0.933542
      ESP Fit Center 1229 is at  -2.354024  1.418920  0.933542
      ESP Fit Center 1230 is at  -2.354024  0.995188  0.933542
      ESP Fit Center 1231 is at  -2.278363  0.578266  0.933542
      ESP Fit Center 1232 is at  -2.129475  0.181553  0.933542
      ESP Fit Center 1233 is at   2.212827  0.376566  0.933542
      ESP Fit Center 1234 is at   2.325556  0.785028  0.933542
      ESP Fit Center 1235 is at  -1.727631 -1.835860  2.892988
      ESP Fit Center 1236 is at   1.642950 -2.032174  2.892988
      ESP Fit Center 1237 is at   1.788949 -1.631043  2.892988
      ESP Fit Center 1238 is at   2.078461 -1.207054  2.550298
      ESP Fit Center 1239 is at  -2.067797 -1.417328  2.550298
      ESP Fit Center 1240 is at  -1.983141 -1.829269  2.550298
      ESP Fit Center 1241 is at  -1.817295 -2.215735  2.550298
      ESP Fit Center 1242 is at   1.910018 -2.026707  2.550298
      ESP Fit Center 1243 is at   2.035915 -1.625445  2.550298
      ESP Fit Center 1244 is at   2.255262 -1.207054  2.171146
      ESP Fit Center 1245 is at  -2.245050 -0.992678  2.171146
      ESP Fit Center 1246 is at  -2.245050 -1.421430  2.171146
      ESP Fit Center 1247 is at  -2.163908 -1.842435  2.171146
      ESP Fit Center 1248 is at  -2.004557 -2.240475  2.171146
      ESP Fit Center 1249 is at   1.897247 -2.426341  2.171146
      ESP Fit Center 1250 is at   2.093713 -2.045250  2.171146
      ESP Fit Center 1251 is at   2.214507 -1.633865  2.171146
      ESP Fit Center 1252 is at   2.363539 -1.207054  1.767054
      ESP Fit Center 1253 is at   2.325556 -0.785028  1.767054
      ESP Fit Center 1254 is at  -2.354024 -0.995188  1.767054
      ESP Fit Center 1255 is at  -2.354024 -1.418920  1.767054
      ESP Fit Center 1256 is at  -2.278363 -1.835842  1.767054
      ESP Fit Center 1257 is at  -2.129475 -2.232555  1.767054
      ESP Fit Center 1258 is at  -1.912143 -2.596307  1.767054
      ESP Fit Center 1259 is at   2.028977 -2.419311  1.767054
      ESP Fit Center 1260 is at   2.212827 -2.037542  1.767054
      ESP Fit Center 1261 is at   2.325556 -1.629080  1.767054
      ESP Fit Center 1262 is at   2.400000 -1.207054  1.350298
      ESP Fit Center 1263 is at   2.363539 -0.790298  1.350298
      ESP Fit Center 1264 is at  -2.363539 -0.790298  1.350298
      ESP Fit Center 1265 is at  -2.400000 -1.207054  1.350298
      ESP Fit Center 1266 is at  -2.363539 -1.623810  1.350298
      ESP Fit Center 1267 is at  -2.255262 -2.027902  1.350298
      ESP Fit Center 1268 is at  -2.078461 -2.407054  1.350298
      ESP Fit Center 1269 is at  -1.838507 -2.749744  1.350298
      ESP Fit Center 1270 is at   1.838507 -2.749744  1.350298
      ESP Fit Center 1271 is at   2.078461 -2.407054  1.350298
      ESP Fit Center 1272 is at   2.255262 -2.027902  1.350298
      ESP Fit Center 1273 is at   2.363539 -1.623810  1.350298
      ESP Fit Center 1274 is at   2.363539 -1.207054  0.933542
      ESP Fit Center 1275 is at   2.325556 -0.785028  0.933542
      ESP Fit Center 1276 is at   2.212827 -0.376566  0.933542
      ESP Fit Center 1277 is at  -2.129475 -0.181553  0.933542
      ESP Fit Center 1278 is at  -2.278363 -0.578266  0.933542
      ESP Fit Center 1279 is at  -2.354024 -0.995188  0.933542
      ESP Fit Center 1280 is at  -2.354024 -1.418920  0.933542
      ESP Fit Center 1281 is at  -2.278363 -1.835842  0.933542
      ESP Fit Center 1282 is at  -2.129475 -2.232555  0.933542
      ESP Fit Center 1283 is at  -1.912143 -2.596307  0.933542
      ESP Fit Center 1284 is at  -1.633353 -2.915408  0.933542
      ESP Fit Center 1285 is at   1.473642 -3.054943  0.933542
      ESP Fit Center 1286 is at   1.779913 -2.762118  0.933542
      ESP Fit Center 1287 is at   2.028977 -2.419311  0.933542
      ESP Fit Center 1288 is at   2.212827 -2.037542  0.933542
      ESP Fit Center 1289 is at   2.325556 -1.629080  0.933542
      ESP Fit Center 1290 is at   2.363539 -0.000000  2.480046
      ESP Fit Center 1291 is at   2.325556  0.422026  2.480046
      ESP Fit Center 1292 is at   2.212827  0.830488  2.480046
      ESP Fit Center 1293 is at  -2.129475  1.025501  2.480046
      ESP Fit Center 1294 is at  -2.278363  0.628788  2.480046
      ESP Fit Center 1295 is at  -2.354024  0.211866  2.480046
      ESP Fit Center 1296 is at  -2.354024 -0.211866  2.480046
      ESP Fit Center 1297 is at  -2.278363 -0.628788  2.480046
      ESP Fit Center 1298 is at  -2.129475 -1.025501  2.480046
      ESP Fit Center 1299 is at   2.212827 -0.830488  2.480046
      ESP Fit Center 1300 is at   2.325556 -0.422026  2.480046
      ESP Fit Center 1301 is at   2.400000 -0.000000  2.063290
      ESP Fit Center 1302 is at   2.363539  0.416756  2.063290
      ESP Fit Center 1303 is at  -2.363539  0.416756  2.063290
      ESP Fit Center 1304 is at  -2.400000  0.000000  2.063290
      ESP Fit Center 1305 is at  -2.363539 -0.416756  2.063290
      ESP Fit Center 1306 is at   2.363539 -0.416756  2.063290
      ESP Fit Center 1307 is at   2.363539 -0.000000  1.646534
      ESP Fit Center 1308 is at   2.325556  0.422026  1.646534
      ESP Fit Center 1309 is at  -2.354024  0.211866  1.646534
      ESP Fit Center 1310 is at  -2.354024 -0.211866  1.646534
      ESP Fit Center 1311 is at   2.325556 -0.422026  1.646534
      ESP Fit Center 1312 is at   2.255262 -0.000000  1.242442
      ESP Fit Center 1313 is at  -2.245050  0.214376  1.242442
      ESP Fit Center 1314 is at  -2.245050 -0.214376  1.242442
      ESP Fit Center 1315 is at   2.078461 -0.000000  0.863290
      ESP Fit Center 1316 is at   2.078461  0.000000  0.489593
      ESP Fit Center 1317 is at   2.255262  0.000000  0.110441
      ESP Fit Center 1318 is at  -2.245050  0.214376  0.110441
      ESP Fit Center 1319 is at  -2.245050 -0.214376  0.110441
      ESP Fit Center 1320 is at   2.363539  0.000000 -0.293651
      ESP Fit Center 1321 is at   2.325556  0.422026 -0.293651
      ESP Fit Center 1322 is at  -2.354024  0.211866 -0.293651
      ESP Fit Center 1323 is at  -2.354024 -0.211866 -0.293651
      ESP Fit Center 1324 is at   2.325556 -0.422026 -0.293651
      ESP Fit Center 1325 is at   2.400000  0.000000 -0.710407
      ESP Fit Center 1326 is at   2.363539  0.416756 -0.710407
      ESP Fit Center 1327 is at  -2.363539  0.416756 -0.710407
      ESP Fit Center 1328 is at  -2.400000  0.000000 -0.710407
      ESP Fit Center 1329 is at  -2.363539 -0.416756 -0.710407
      ESP Fit Center 1330 is at   2.363539 -0.416756 -0.710407
      ESP Fit Center 1331 is at   2.363539  0.000000 -1.127163
      ESP Fit Center 1332 is at   2.325556  0.422026 -1.127163
      ESP Fit Center 1333 is at   2.212827  0.830488 -1.127163
      ESP Fit Center 1334 is at  -2.129475  1.025501 -1.127163
      ESP Fit Center 1335 is at  -2.278363  0.628788 -1.127163
      ESP Fit Center 1336 is at  -2.354024  0.211866 -1.127163
      ESP Fit Center 1337 is at  -2.354024 -0.211866 -1.127163
      ESP Fit Center 1338 is at  -2.278363 -0.628788 -1.127163
      ESP Fit Center 1339 is at  -2.129475 -1.025501 -1.127163
      ESP Fit Center 1340 is at   2.212827 -0.830488 -1.127163
      ESP Fit Center 1341 is at   2.325556 -0.422026 -1.127163
      ESP Fit Center 1342 is at   0.623586  3.492570  0.626741
      ESP Fit Center 1343 is at   0.213631  3.612943  0.626741
      ESP Fit Center 1344 is at  -0.213631  3.612943  0.626741
      ESP Fit Center 1345 is at  -0.623586  3.492570  0.626741
      ESP Fit Center 1346 is at   1.294819  3.274216  0.262698
      ESP Fit Center 1347 is at   0.982673  3.550753  0.262698
      ESP Fit Center 1348 is at   0.613417  3.744553  0.262698
      ESP Fit Center 1349 is at   0.208512  3.844354  0.262698
      ESP Fit Center 1350 is at  -0.208512  3.844354  0.262698
      ESP Fit Center 1351 is at  -0.613417  3.744553  0.262698
      ESP Fit Center 1352 is at  -0.982673  3.550753  0.262698
      ESP Fit Center 1353 is at  -1.294819  3.274216  0.262698
      ESP Fit Center 1354 is at   1.686489  2.939276 -0.143119
      ESP Fit Center 1355 is at   1.463480  3.294193 -0.143119
      ESP Fit Center 1356 is at   1.167087  3.590586 -0.143119
      ESP Fit Center 1357 is at   0.812170  3.813595 -0.143119
      ESP Fit Center 1358 is at   0.416528  3.952036 -0.143119
      ESP Fit Center 1359 is at   0.000000  3.998968 -0.143119
      ESP Fit Center 1360 is at  -0.416528  3.952036 -0.143119
      ESP Fit Center 1361 is at  -0.812170  3.813595 -0.143119
      ESP Fit Center 1362 is at  -1.167087  3.590586 -0.143119
      ESP Fit Center 1363 is at  -1.463480  3.294193 -0.143119
      ESP Fit Center 1364 is at  -1.686489  2.939276 -0.143119
      ESP Fit Center 1365 is at   1.742545  2.933293 -0.570359
      ESP Fit Center 1366 is at   1.528499  3.289040 -0.570359
      ESP Fit Center 1367 is at   1.242982  3.590457 -0.570359
      ESP Fit Center 1368 is at   0.899344  3.823449 -0.570359
      ESP Fit Center 1369 is at   0.513654  3.977122 -0.570359
      ESP Fit Center 1370 is at   0.103947  4.044290 -0.570359
      ESP Fit Center 1371 is at  -0.310621  4.021813 -0.570359
      ESP Fit Center 1372 is at  -0.710665  3.910741 -0.570359
      ESP Fit Center 1373 is at  -1.077479  3.716269 -0.570359
      ESP Fit Center 1374 is at  -1.393911  3.447489 -0.570359
      ESP Fit Center 1375 is at  -1.645166  3.116969 -0.570359
      ESP Fit Center 1376 is at  -1.819494  2.740165 -0.570359
      ESP Fit Center 1377 is at   1.824930  2.543634 -0.997599
      ESP Fit Center 1378 is at   1.686489  2.939276 -0.997599
      ESP Fit Center 1379 is at   1.463480  3.294193 -0.997599
      ESP Fit Center 1380 is at   1.167087  3.590586 -0.997599
      ESP Fit Center 1381 is at   0.812170  3.813595 -0.997599
      ESP Fit Center 1382 is at   0.416528  3.952036 -0.997599
      ESP Fit Center 1383 is at   0.000000  3.998968 -0.997599
      ESP Fit Center 1384 is at  -0.416528  3.952036 -0.997599
      ESP Fit Center 1385 is at  -0.812170  3.813595 -0.997599
      ESP Fit Center 1386 is at  -1.167087  3.590586 -0.997599
      ESP Fit Center 1387 is at  -1.463480  3.294193 -0.997599
      ESP Fit Center 1388 is at  -1.686489  2.939276 -0.997599
      ESP Fit Center 1389 is at  -1.824930  2.543634 -0.997599
      ESP Fit Center 1390 is at   1.679594  2.541089 -1.403416
      ESP Fit Center 1391 is at   1.531715  2.931012 -1.403416
      ESP Fit Center 1392 is at   1.294819  3.274216 -1.403416
      ESP Fit Center 1393 is at   0.982673  3.550753 -1.403416
      ESP Fit Center 1394 is at   0.613417  3.744553 -1.403416
      ESP Fit Center 1395 is at   0.208512  3.844354 -1.403416
      ESP Fit Center 1396 is at  -0.208512  3.844354 -1.403416
      ESP Fit Center 1397 is at  -0.613417  3.744553 -1.403416
      ESP Fit Center 1398 is at  -0.982673  3.550753 -1.403416
      ESP Fit Center 1399 is at  -1.294819  3.274216 -1.403416
      ESP Fit Center 1400 is at  -1.531715  2.931012 -1.403416
      ESP Fit Center 1401 is at  -1.679594  2.541089 -1.403416
      ESP Fit Center 1402 is at   1.440311  2.550019 -1.767459
      ESP Fit Center 1403 is at   1.262820  2.938671 -1.767459
      ESP Fit Center 1404 is at   0.983022  3.261574 -1.767459
      ESP Fit Center 1405 is at   0.623586  3.492570 -1.767459
      ESP Fit Center 1406 is at   0.213631  3.612943 -1.767459
      ESP Fit Center 1407 is at  -0.213631  3.612943 -1.767459
      ESP Fit Center 1408 is at  -0.623586  3.492570 -1.767459
      ESP Fit Center 1409 is at  -0.983022  3.261574 -1.767459
      ESP Fit Center 1410 is at  -1.262820  2.938671 -1.767459
      ESP Fit Center 1411 is at  -1.440311  2.550019 -1.767459
      ESP Fit Center 1412 is at   0.598550  3.163825 -2.071475
      ESP Fit Center 1413 is at   0.207874  3.306020 -2.071475
      ESP Fit Center 1414 is at  -0.207874  3.306020 -2.071475
      ESP Fit Center 1415 is at  -0.598550  3.163825 -2.071475
      ESP Fit Center 1416 is at  -0.623586 -3.492570  0.626741
      ESP Fit Center 1417 is at  -0.213631 -3.612943  0.626741
      ESP Fit Center 1418 is at   0.213631 -3.612943  0.626741
      ESP Fit Center 1419 is at   0.623586 -3.492570  0.626741
      ESP Fit Center 1420 is at  -1.294819 -3.274216  0.262698
      ESP Fit Center 1421 is at  -0.982673 -3.550753  0.262698
      ESP Fit Center 1422 is at  -0.613417 -3.744553  0.262698
      ESP Fit Center 1423 is at  -0.208512 -3.844354  0.262698
      ESP Fit Center 1424 is at   0.208512 -3.844354  0.262698
      ESP Fit Center 1425 is at   0.613417 -3.744553  0.262698
      ESP Fit Center 1426 is at   0.982673 -3.550753  0.262698
      ESP Fit Center 1427 is at   1.294819 -3.274216  0.262698
      ESP Fit Center 1428 is at  -1.686489 -2.939276 -0.143119
      ESP Fit Center 1429 is at  -1.463480 -3.294193 -0.143119
      ESP Fit Center 1430 is at  -1.167087 -3.590586 -0.143119
      ESP Fit Center 1431 is at  -0.812170 -3.813595 -0.143119
      ESP Fit Center 1432 is at  -0.416528 -3.952036 -0.143119
      ESP Fit Center 1433 is at  -0.000000 -3.998968 -0.143119
      ESP Fit Center 1434 is at   0.416528 -3.952036 -0.143119
      ESP Fit Center 1435 is at   0.812170 -3.813595 -0.143119
      ESP Fit Center 1436 is at   1.167087 -3.590586 -0.143119
      ESP Fit Center 1437 is at   1.463480 -3.294193 -0.143119
      ESP Fit Center 1438 is at   1.686489 -2.939276 -0.143119
      ESP Fit Center 1439 is at  -1.819494 -2.740165 -0.570359
      ESP Fit Center 1440 is at  -1.645166 -3.116969 -0.570359
      ESP Fit Center 1441 is at  -1.393911 -3.447489 -0.570359
      ESP Fit Center 1442 is at  -1.077479 -3.716269 -0.570359
      ESP Fit Center 1443 is at  -0.710665 -3.910741 -0.570359
      ESP Fit Center 1444 is at  -0.310621 -4.021813 -0.570359
      ESP Fit Center 1445 is at   0.103947 -4.044290 -0.570359
      ESP Fit Center 1446 is at   0.513654 -3.977122 -0.570359
      ESP Fit Center 1447 is at   0.899344 -3.823449 -0.570359
      ESP Fit Center 1448 is at   1.242982 -3.590457 -0.570359
      ESP Fit Center 1449 is at   1.528499 -3.289040 -0.570359
      ESP Fit Center 1450 is at   1.742545 -2.933293 -0.570359
      ESP Fit Center 1451 is at  -1.824930 -2.543634 -0.997599
      ESP Fit Center 1452 is at  -1.686489 -2.939276 -0.997599
      ESP Fit Center 1453 is at  -1.463480 -3.294193 -0.997599
      ESP Fit Center 1454 is at  -1.167087 -3.590586 -0.997599
      ESP Fit Center 1455 is at  -0.812170 -3.813595 -0.997599
      ESP Fit Center 1456 is at  -0.416528 -3.952036 -0.997599
      ESP Fit Center 1457 is at  -0.000000 -3.998968 -0.997599
      ESP Fit Center 1458 is at   0.416528 -3.952036 -0.997599
      ESP Fit Center 1459 is at   0.812170 -3.813595 -0.997599
      ESP Fit Center 1460 is at   1.167087 -3.590586 -0.997599
      ESP Fit Center 1461 is at   1.463480 -3.294193 -0.997599
      ESP Fit Center 1462 is at   1.686489 -2.939276 -0.997599
      ESP Fit Center 1463 is at   1.824930 -2.543634 -0.997599
      ESP Fit Center 1464 is at  -1.679594 -2.541089 -1.403416
      ESP Fit Center 1465 is at  -1.531715 -2.931012 -1.403416
      ESP Fit Center 1466 is at  -1.294819 -3.274216 -1.403416
      ESP Fit Center 1467 is at  -0.982673 -3.550753 -1.403416
      ESP Fit Center 1468 is at  -0.613417 -3.744553 -1.403416
      ESP Fit Center 1469 is at  -0.208512 -3.844354 -1.403416
      ESP Fit Center 1470 is at   0.208512 -3.844354 -1.403416
      ESP Fit Center 1471 is at   0.613417 -3.744553 -1.403416
      ESP Fit Center 1472 is at   0.982673 -3.550753 -1.403416
      ESP Fit Center 1473 is at   1.294819 -3.274216 -1.403416
      ESP Fit Center 1474 is at   1.531715 -2.931012 -1.403416
      ESP Fit Center 1475 is at   1.679594 -2.541089 -1.403416
      ESP Fit Center 1476 is at  -1.440311 -2.550019 -1.767459
      ESP Fit Center 1477 is at  -1.262820 -2.938671 -1.767459
      ESP Fit Center 1478 is at  -0.983022 -3.261574 -1.767459
      ESP Fit Center 1479 is at  -0.623586 -3.492570 -1.767459
      ESP Fit Center 1480 is at  -0.213631 -3.612943 -1.767459
      ESP Fit Center 1481 is at   0.213631 -3.612943 -1.767459
      ESP Fit Center 1482 is at   0.623586 -3.492570 -1.767459
      ESP Fit Center 1483 is at   0.983022 -3.261574 -1.767459
      ESP Fit Center 1484 is at   1.262820 -2.938671 -1.767459
      ESP Fit Center 1485 is at   1.440311 -2.550019 -1.767459
      ESP Fit Center 1486 is at  -0.598550 -3.163825 -2.071475
      ESP Fit Center 1487 is at  -0.207874 -3.306020 -2.071475
      ESP Fit Center 1488 is at   0.207874 -3.306020 -2.071475
      ESP Fit Center 1489 is at   0.598550 -3.163825 -2.071475
      ESP Fit Center 1490 is at   0.416528  2.861837  3.613829
      ESP Fit Center 1491 is at   0.000000  2.973446  3.613829
      ESP Fit Center 1492 is at  -0.416528  2.861837  3.613829
      ESP Fit Center 1493 is at   1.124906  2.549821  3.385086
      ESP Fit Center 1494 is at   0.917032  2.909870  3.385086
      ESP Fit Center 1495 is at   0.598550  3.177108  3.385086
      ESP Fit Center 1496 is at   0.207874  3.319303  3.385086
      ESP Fit Center 1497 is at  -0.207874  3.319303  3.385086
      ESP Fit Center 1498 is at  -0.598550  3.177108  3.385086
      ESP Fit Center 1499 is at  -0.917032  2.909870  3.385086
      ESP Fit Center 1500 is at  -1.124906  2.549821  3.385086
      ESP Fit Center 1501 is at   1.501116  2.140389  3.081069
      ESP Fit Center 1502 is at   1.440311  2.563302  3.081069
      ESP Fit Center 1503 is at   1.262820  2.951954  3.081069
      ESP Fit Center 1504 is at   0.983022  3.274857  3.081069
      ESP Fit Center 1505 is at   0.623586  3.505853  3.081069
      ESP Fit Center 1506 is at   0.213631  3.626226  3.081069
      ESP Fit Center 1507 is at  -0.213631  3.626226  3.081069
      ESP Fit Center 1508 is at  -0.623586  3.505853  3.081069
      ESP Fit Center 1509 is at  -0.983022  3.274857  3.081069
      ESP Fit Center 1510 is at  -1.262820  2.951954  3.081069
      ESP Fit Center 1511 is at  -1.440311  2.563302  3.081069
      ESP Fit Center 1512 is at  -1.501116  2.140389  3.081069
      ESP Fit Center 1513 is at   1.679594  2.554372  2.717026
      ESP Fit Center 1514 is at   1.531715  2.944295  2.717026
      ESP Fit Center 1515 is at   1.294819  3.287499  2.717026
      ESP Fit Center 1516 is at   0.982673  3.564036  2.717026
      ESP Fit Center 1517 is at   0.613417  3.757836  2.717026
      ESP Fit Center 1518 is at   0.208512  3.857637  2.717026
      ESP Fit Center 1519 is at  -0.208512  3.857637  2.717026
      ESP Fit Center 1520 is at  -0.613417  3.757836  2.717026
      ESP Fit Center 1521 is at  -0.982673  3.564036  2.717026
      ESP Fit Center 1522 is at  -1.294819  3.287499  2.717026
      ESP Fit Center 1523 is at  -1.531715  2.944295  2.717026
      ESP Fit Center 1524 is at  -1.679594  2.554372  2.717026
      ESP Fit Center 1525 is at   1.824930  2.556917  2.311209
      ESP Fit Center 1526 is at   1.686489  2.952559  2.311209
      ESP Fit Center 1527 is at   1.463480  3.307476  2.311209
      ESP Fit Center 1528 is at   1.167087  3.603869  2.311209
      ESP Fit Center 1529 is at   0.812170  3.826878  2.311209
      ESP Fit Center 1530 is at   0.416528  3.965319  2.311209
      ESP Fit Center 1531 is at   0.000000  4.012251  2.311209
      ESP Fit Center 1532 is at  -0.416528  3.965319  2.311209
      ESP Fit Center 1533 is at  -0.812170  3.826878  2.311209
      ESP Fit Center 1534 is at  -1.167087  3.603869  2.311209
      ESP Fit Center 1535 is at  -1.463480  3.307476  2.311209
      ESP Fit Center 1536 is at  -1.686489  2.952559  2.311209
      ESP Fit Center 1537 is at  -1.824930  2.556917  2.311209
      ESP Fit Center 1538 is at   1.742545  2.946576  1.883969
      ESP Fit Center 1539 is at   1.528499  3.302323  1.883969
      ESP Fit Center 1540 is at   1.242982  3.603740  1.883969
      ESP Fit Center 1541 is at   0.899344  3.836732  1.883969
      ESP Fit Center 1542 is at   0.513654  3.990405  1.883969
      ESP Fit Center 1543 is at   0.103947  4.057573  1.883969
      ESP Fit Center 1544 is at  -0.310621  4.035096  1.883969
      ESP Fit Center 1545 is at  -0.710665  3.924024  1.883969
      ESP Fit Center 1546 is at  -1.077479  3.729552  1.883969
      ESP Fit Center 1547 is at  -1.393911  3.460772  1.883969
      ESP Fit Center 1548 is at  -1.645166  3.130252  1.883969
      ESP Fit Center 1549 is at  -1.819494  2.753448  1.883969
      ESP Fit Center 1550 is at   1.686489  2.952559  1.456729
      ESP Fit Center 1551 is at   1.463480  3.307476  1.456729
      ESP Fit Center 1552 is at   1.167087  3.603869  1.456729
      ESP Fit Center 1553 is at   0.812170  3.826878  1.456729
      ESP Fit Center 1554 is at   0.416528  3.965319  1.456729
      ESP Fit Center 1555 is at   0.000000  4.012251  1.456729
      ESP Fit Center 1556 is at  -0.416528  3.965319  1.456729
      ESP Fit Center 1557 is at  -0.812170  3.826878  1.456729
      ESP Fit Center 1558 is at  -1.167087  3.603869  1.456729
      ESP Fit Center 1559 is at  -1.463480  3.307476  1.456729
      ESP Fit Center 1560 is at  -1.686489  2.952559  1.456729
      ESP Fit Center 1561 is at   1.294819  3.287499  1.050912
      ESP Fit Center 1562 is at   0.982673  3.564036  1.050912
      ESP Fit Center 1563 is at   0.613417  3.757836  1.050912
      ESP Fit Center 1564 is at   0.208512  3.857637  1.050912
      ESP Fit Center 1565 is at  -0.208512  3.857637  1.050912
      ESP Fit Center 1566 is at  -0.613417  3.757836  1.050912
      ESP Fit Center 1567 is at  -0.982673  3.564036  1.050912
      ESP Fit Center 1568 is at  -1.294819  3.287499  1.050912
      ESP Fit Center 1569 is at   0.623586  3.505853  0.686869
      ESP Fit Center 1570 is at   0.213631  3.626226  0.686869
      ESP Fit Center 1571 is at  -0.213631  3.626226  0.686869
      ESP Fit Center 1572 is at  -0.623586  3.505853  0.686869
      ESP Fit Center 1573 is at  -0.416528 -2.861837  3.613829
      ESP Fit Center 1574 is at  -0.000000 -2.973446  3.613829
      ESP Fit Center 1575 is at   0.416528 -2.861837  3.613829
      ESP Fit Center 1576 is at  -1.124906 -2.549821  3.385086
      ESP Fit Center 1577 is at  -0.917032 -2.909870  3.385086
      ESP Fit Center 1578 is at  -0.598550 -3.177108  3.385086
      ESP Fit Center 1579 is at  -0.207874 -3.319303  3.385086
      ESP Fit Center 1580 is at   0.207874 -3.319303  3.385086
      ESP Fit Center 1581 is at   0.598550 -3.177108  3.385086
      ESP Fit Center 1582 is at   0.917032 -2.909870  3.385086
      ESP Fit Center 1583 is at   1.124906 -2.549821  3.385086
      ESP Fit Center 1584 is at   1.501116 -2.140389  3.081069
      ESP Fit Center 1585 is at  -1.501116 -2.140389  3.081069
      ESP Fit Center 1586 is at  -1.440311 -2.563302  3.081069
      ESP Fit Center 1587 is at  -1.262820 -2.951954  3.081069
      ESP Fit Center 1588 is at  -0.983022 -3.274857  3.081069
      ESP Fit Center 1589 is at  -0.623586 -3.505853  3.081069
      ESP Fit Center 1590 is at  -0.213631 -3.626226  3.081069
      ESP Fit Center 1591 is at   0.213631 -3.626226  3.081069
      ESP Fit Center 1592 is at   0.623586 -3.505853  3.081069
      ESP Fit Center 1593 is at   0.983022 -3.274857  3.081069
      ESP Fit Center 1594 is at   1.262820 -2.951954  3.081069
      ESP Fit Center 1595 is at   1.440311 -2.563302  3.081069
      ESP Fit Center 1596 is at  -1.679594 -2.554372  2.717026
      ESP Fit Center 1597 is at  -1.531715 -2.944295  2.717026
      ESP Fit Center 1598 is at  -1.294819 -3.287499  2.717026
      ESP Fit Center 1599 is at  -0.982673 -3.564036  2.717026
      ESP Fit Center 1600 is at  -0.613417 -3.757836  2.717026
      ESP Fit Center 1601 is at  -0.208512 -3.857637  2.717026
      ESP Fit Center 1602 is at   0.208512 -3.857637  2.717026
      ESP Fit Center 1603 is at   0.613417 -3.757836  2.717026
      ESP Fit Center 1604 is at   0.982673 -3.564036  2.717026
      ESP Fit Center 1605 is at   1.294819 -3.287499  2.717026
      ESP Fit Center 1606 is at   1.531715 -2.944295  2.717026
      ESP Fit Center 1607 is at   1.679594 -2.554372  2.717026
      ESP Fit Center 1608 is at  -1.824930 -2.556917  2.311209
      ESP Fit Center 1609 is at  -1.686489 -2.952559  2.311209
      ESP Fit Center 1610 is at  -1.463480 -3.307476  2.311209
      ESP Fit Center 1611 is at  -1.167087 -3.603869  2.311209
      ESP Fit Center 1612 is at  -0.812170 -3.826878  2.311209
      ESP Fit Center 1613 is at  -0.416528 -3.965319  2.311209
      ESP Fit Center 1614 is at  -0.000000 -4.012251  2.311209
      ESP Fit Center 1615 is at   0.416528 -3.965319  2.311209
      ESP Fit Center 1616 is at   0.812170 -3.826878  2.311209
      ESP Fit Center 1617 is at   1.167087 -3.603869  2.311209
      ESP Fit Center 1618 is at   1.463480 -3.307476  2.311209
      ESP Fit Center 1619 is at   1.686489 -2.952559  2.311209
      ESP Fit Center 1620 is at   1.824930 -2.556917  2.311209
      ESP Fit Center 1621 is at  -1.819494 -2.753448  1.883969
      ESP Fit Center 1622 is at  -1.645166 -3.130252  1.883969
      ESP Fit Center 1623 is at  -1.393911 -3.460772  1.883969
      ESP Fit Center 1624 is at  -1.077479 -3.729552  1.883969
      ESP Fit Center 1625 is at  -0.710665 -3.924024  1.883969
      ESP Fit Center 1626 is at  -0.310621 -4.035096  1.883969
      ESP Fit Center 1627 is at   0.103947 -4.057573  1.883969
      ESP Fit Center 1628 is at   0.513654 -3.990405  1.883969
      ESP Fit Center 1629 is at   0.899344 -3.836732  1.883969
      ESP Fit Center 1630 is at   1.242982 -3.603740  1.883969
      ESP Fit Center 1631 is at   1.528499 -3.302323  1.883969
      ESP Fit Center 1632 is at   1.742545 -2.946576  1.883969
      ESP Fit Center 1633 is at  -1.686489 -2.952559  1.456729
      ESP Fit Center 1634 is at  -1.463480 -3.307476  1.456729
      ESP Fit Center 1635 is at  -1.167087 -3.603869  1.456729
      ESP Fit Center 1636 is at  -0.812170 -3.826878  1.456729
      ESP Fit Center 1637 is at  -0.416528 -3.965319  1.456729
      ESP Fit Center 1638 is at  -0.000000 -4.012251  1.456729
      ESP Fit Center 1639 is at   0.416528 -3.965319  1.456729
      ESP Fit Center 1640 is at   0.812170 -3.826878  1.456729
      ESP Fit Center 1641 is at   1.167087 -3.603869  1.456729
      ESP Fit Center 1642 is at   1.463480 -3.307476  1.456729
      ESP Fit Center 1643 is at   1.686489 -2.952559  1.456729
      ESP Fit Center 1644 is at  -1.294819 -3.287499  1.050912
      ESP Fit Center 1645 is at  -0.982673 -3.564036  1.050912
      ESP Fit Center 1646 is at  -0.613417 -3.757836  1.050912
      ESP Fit Center 1647 is at  -0.208512 -3.857637  1.050912
      ESP Fit Center 1648 is at   0.208512 -3.857637  1.050912
      ESP Fit Center 1649 is at   0.613417 -3.757836  1.050912
      ESP Fit Center 1650 is at   0.982673 -3.564036  1.050912
      ESP Fit Center 1651 is at   1.294819 -3.287499  1.050912
      ESP Fit Center 1652 is at  -0.623586 -3.505853  0.686869
      ESP Fit Center 1653 is at  -0.213631 -3.626226  0.686869
      ESP Fit Center 1654 is at   0.213631 -3.626226  0.686869
      ESP Fit Center 1655 is at   0.623586 -3.505853  0.686869
      ESP Fit Center 1656 is at   2.363539  0.000000 -1.736388
      ESP Fit Center 1657 is at   2.325556  0.422026 -1.736388
      ESP Fit Center 1658 is at   2.212827  0.830488 -1.736388
      ESP Fit Center 1659 is at   2.028977  1.212257 -1.736388
      ESP Fit Center 1660 is at  -2.129475  1.025501 -1.736388
      ESP Fit Center 1661 is at  -2.278363  0.628788 -1.736388
      ESP Fit Center 1662 is at  -2.354024  0.211866 -1.736388
      ESP Fit Center 1663 is at  -2.354024 -0.211866 -1.736388
      ESP Fit Center 1664 is at  -2.278363 -0.628788 -1.736388
      ESP Fit Center 1665 is at  -2.129475 -1.025501 -1.736388
      ESP Fit Center 1666 is at   2.028977 -1.212257 -1.736388
      ESP Fit Center 1667 is at   2.212827 -0.830488 -1.736388
      ESP Fit Center 1668 is at   2.325556 -0.422026 -1.736388
      ESP Fit Center 1669 is at   2.400000  0.000000 -2.153144
      ESP Fit Center 1670 is at   2.363539  0.416756 -2.153144
      ESP Fit Center 1671 is at   2.255262  0.820848 -2.153144
      ESP Fit Center 1672 is at  -2.255262  0.820848 -2.153144
      ESP Fit Center 1673 is at  -2.363539  0.416756 -2.153144
      ESP Fit Center 1674 is at  -2.400000  0.000000 -2.153144
      ESP Fit Center 1675 is at  -2.363539 -0.416756 -2.153144
      ESP Fit Center 1676 is at  -2.255262 -0.820848 -2.153144
      ESP Fit Center 1677 is at   2.255262 -0.820848 -2.153144
      ESP Fit Center 1678 is at   2.363539 -0.416756 -2.153144
      ESP Fit Center 1679 is at   2.363539  0.000000 -2.569900
      ESP Fit Center 1680 is at   2.325556  0.422026 -2.569900
      ESP Fit Center 1681 is at  -2.278363  0.628788 -2.569900
      ESP Fit Center 1682 is at  -2.354024  0.211866 -2.569900
      ESP Fit Center 1683 is at  -2.354024 -0.211866 -2.569900
      ESP Fit Center 1684 is at  -2.278363 -0.628788 -2.569900
      ESP Fit Center 1685 is at   2.325556 -0.422026 -2.569900
      ESP Fit Center 1686 is at   2.255262  0.000000 -2.973992
      ESP Fit Center 1687 is at   2.214507  0.426811 -2.973992
      ESP Fit Center 1688 is at  -2.245050  0.214376 -2.973992
      ESP Fit Center 1689 is at  -2.245050 -0.214376 -2.973992
      ESP Fit Center 1690 is at   2.214507 -0.426811 -2.973992
      ESP Fit Center 1691 is at   2.078461  0.000000 -3.353144
      ESP Fit Center 1692 is at  -2.067797  0.210274 -3.353144
      ESP Fit Center 1693 is at  -2.067797 -0.210274 -3.353144
      ESP Fit Center 1694 is at   1.838507  0.000000 -3.695834
      ESP Fit Center 1695 is at   1.542690  0.000000 -3.991651
      ESP Fit Center 1696 is at   0.000000 -0.000000  5.822806
      ESP Fit Center 1697 is at   0.416756 -0.000000  5.786345
      ESP Fit Center 1698 is at   0.208378  0.360921  5.786345
      ESP Fit Center 1699 is at  -0.208378  0.360921  5.786345
      ESP Fit Center 1700 is at  -0.416756  0.000000  5.786345
      ESP Fit Center 1701 is at  -0.208378 -0.360921  5.786345
      ESP Fit Center 1702 is at   0.208378 -0.360921  5.786345
      ESP Fit Center 1703 is at   0.820848 -0.000000  5.678068
      ESP Fit Center 1704 is at   0.710876  0.410424  5.678068
      ESP Fit Center 1705 is at  -0.710876  0.410424  5.678068
      ESP Fit Center 1706 is at  -0.820848  0.000000  5.678068
      ESP Fit Center 1707 is at  -0.710876 -0.410424  5.678068
      ESP Fit Center 1708 is at   0.710876 -0.410424  5.678068
      ESP Fit Center 1709 is at   1.200000 -0.000000  5.501267
      ESP Fit Center 1710 is at   1.127631  0.410424  5.501267
      ESP Fit Center 1711 is at  -1.127631  0.410424  5.501267
      ESP Fit Center 1712 is at  -1.200000  0.000000  5.501267
      ESP Fit Center 1713 is at  -1.127631 -0.410424  5.501267
      ESP Fit Center 1714 is at   1.127631 -0.410424  5.501267
      ESP Fit Center 1715 is at   1.542690 -0.000000  5.261313
      ESP Fit Center 1716 is at   1.485483  0.416213  5.261313
      ESP Fit Center 1717 is at  -1.414973  0.614609  5.261313
      ESP Fit Center 1718 is at  -1.528322  0.210063  5.261313
      ESP Fit Center 1719 is at  -1.528322 -0.210063  5.261313
      ESP Fit Center 1720 is at  -1.414973 -0.614609  5.261313
      ESP Fit Center 1721 is at   1.485483 -0.416213  5.261313
      ESP Fit Center 1722 is at   1.838507 -0.000000  4.965496
      ESP Fit Center 1723 is at   1.788949  0.423989  4.965496
      ESP Fit Center 1724 is at   1.642950  0.825120  4.965496
      ESP Fit Center 1725 is at  -1.727631  0.628806  4.965496
      ESP Fit Center 1726 is at  -1.826075  0.213438  4.965496
      ESP Fit Center 1727 is at  -1.826075 -0.213438  4.965496
      ESP Fit Center 1728 is at  -1.727631 -0.628806  4.965496
      ESP Fit Center 1729 is at   1.642950 -0.825120  4.965496
      ESP Fit Center 1730 is at   1.788949 -0.423989  4.965496
      ESP Fit Center 1731 is at   2.078461 -0.000000  4.622806
      ESP Fit Center 1732 is at   2.035915  0.418391  4.622806
      ESP Fit Center 1733 is at   1.910018  0.819653  4.622806
      ESP Fit Center 1734 is at  -1.817295  1.008681  4.622806
      ESP Fit Center 1735 is at  -1.983141  0.622215  4.622806
      ESP Fit Center 1736 is at  -2.067797  0.210274  4.622806
      ESP Fit Center 1737 is at  -2.067797 -0.210274  4.622806
      ESP Fit Center 1738 is at  -1.983141 -0.622215  4.622806
      ESP Fit Center 1739 is at  -1.817295 -1.008681  4.622806
      ESP Fit Center 1740 is at   1.910018 -0.819653  4.622806
      ESP Fit Center 1741 is at   2.035915 -0.418391  4.622806
      ESP Fit Center 1742 is at   2.255262 -0.000000  4.243654
      ESP Fit Center 1743 is at   2.214507  0.426811  4.243654
      ESP Fit Center 1744 is at   2.093713  0.838196  4.243654
      ESP Fit Center 1745 is at   1.897247  1.219287  4.243654
      ESP Fit Center 1746 is at  -2.004557  1.033421  4.243654
      ESP Fit Center 1747 is at  -2.163908  0.635381  4.243654
      ESP Fit Center 1748 is at  -2.245050  0.214376  4.243654
      ESP Fit Center 1749 is at  -2.245050 -0.214376  4.243654
      ESP Fit Center 1750 is at  -2.163908 -0.635381  4.243654
      ESP Fit Center 1751 is at  -2.004557 -1.033421  4.243654
      ESP Fit Center 1752 is at   1.897247 -1.219287  4.243654
      ESP Fit Center 1753 is at   2.093713 -0.838196  4.243654
      ESP Fit Center 1754 is at   2.214507 -0.426811  4.243654
      ESP Fit Center 1755 is at   2.363539 -0.000000  3.839562
      ESP Fit Center 1756 is at   2.325556  0.422026  3.839562
      ESP Fit Center 1757 is at   2.212827  0.830488  3.839562
      ESP Fit Center 1758 is at   2.028977  1.212257  3.839562
      ESP Fit Center 1759 is at  -1.912143  1.389253  3.839562
      ESP Fit Center 1760 is at  -2.129475  1.025501  3.839562
      ESP Fit Center 1761 is at  -2.278363  0.628788  3.839562
      ESP Fit Center 1762 is at  -2.354024  0.211866  3.839562
      ESP Fit Center 1763 is at  -2.354024 -0.211866  3.839562
      ESP Fit Center 1764 is at  -2.278363 -0.628788  3.839562
      ESP Fit Center 1765 is at  -2.129475 -1.025501  3.839562
      ESP Fit Center 1766 is at  -1.912143 -1.389253  3.839562
      ESP Fit Center 1767 is at   2.028977 -1.212257  3.839562
      ESP Fit Center 1768 is at   2.212827 -0.830488  3.839562
      ESP Fit Center 1769 is at   2.325556 -0.422026  3.839562
      ESP Fit Center 1770 is at   2.400000 -0.000000  3.422806
      ESP Fit Center 1771 is at   2.363539  0.416756  3.422806
      ESP Fit Center 1772 is at   2.255262  0.820848  3.422806
      ESP Fit Center 1773 is at   2.078461  1.200000  3.422806
      ESP Fit Center 1774 is at   1.838507  1.542690  3.422806
      ESP Fit Center 1775 is at  -1.838507  1.542690  3.422806
      ESP Fit Center 1776 is at  -2.078461  1.200000  3.422806
      ESP Fit Center 1777 is at  -2.255262  0.820848  3.422806
      ESP Fit Center 1778 is at  -2.363539  0.416756  3.422806
      ESP Fit Center 1779 is at  -2.400000  0.000000  3.422806
      ESP Fit Center 1780 is at  -2.363539 -0.416756  3.422806
      ESP Fit Center 1781 is at  -2.255262 -0.820848  3.422806
      ESP Fit Center 1782 is at  -2.078461 -1.200000  3.422806
      ESP Fit Center 1783 is at  -1.838507 -1.542690  3.422806
      ESP Fit Center 1784 is at   1.838507 -1.542690  3.422806
      ESP Fit Center 1785 is at   2.078461 -1.200000  3.422806
      ESP Fit Center 1786 is at   2.255262 -0.820848  3.422806
      ESP Fit Center 1787 is at   2.363539 -0.416756  3.422806
      ESP Fit Center 1788 is at   2.363539 -0.000000  3.006050
      ESP Fit Center 1789 is at   2.325556  0.422026  3.006050
      ESP Fit Center 1790 is at   2.212827  0.830488  3.006050
      ESP Fit Center 1791 is at   2.028977  1.212257  3.006050
      ESP Fit Center 1792 is at   1.779913  1.555064  3.006050
      ESP Fit Center 1793 is at  -1.912143  1.389253  3.006050
      ESP Fit Center 1794 is at  -2.129475  1.025501  3.006050
      ESP Fit Center 1795 is at  -2.278363  0.628788  3.006050
      ESP Fit Center 1796 is at  -2.354024  0.211866  3.006050
      ESP Fit Center 1797 is at  -2.354024 -0.211866  3.006050
      ESP Fit Center 1798 is at  -2.278363 -0.628788  3.006050
      ESP Fit Center 1799 is at  -2.129475 -1.025501  3.006050
      ESP Fit Center 1800 is at  -1.912143 -1.389253  3.006050
      ESP Fit Center 1801 is at   1.779913 -1.555064  3.006050
      ESP Fit Center 1802 is at   2.028977 -1.212257  3.006050
      ESP Fit Center 1803 is at   2.212827 -0.830488  3.006050
      ESP Fit Center 1804 is at   2.325556 -0.422026  3.006050
      ESP Fit Center 1805 is at  -0.000000  0.848501  5.856990
      ESP Fit Center 1806 is at   0.427240  0.848501  5.808852
      ESP Fit Center 1807 is at   0.213620  1.218502  5.808852
      ESP Fit Center 1808 is at  -0.213620  1.218502  5.808852
      ESP Fit Center 1809 is at  -0.427240  0.848501  5.808852
      ESP Fit Center 1810 is at  -0.213620  0.478500  5.808852
      ESP Fit Center 1811 is at   0.213620  0.478500  5.808852
      ESP Fit Center 1812 is at   0.833057  0.848501  5.666850
      ESP Fit Center 1813 is at   0.721448  1.265029  5.666850
      ESP Fit Center 1814 is at   0.416528  1.569949  5.666850
      ESP Fit Center 1815 is at   0.000000  1.681558  5.666850
      ESP Fit Center 1816 is at  -0.416528  1.569949  5.666850
      ESP Fit Center 1817 is at  -0.721448  1.265029  5.666850
      ESP Fit Center 1818 is at  -0.833057  0.848501  5.666850
      ESP Fit Center 1819 is at   1.197100  0.848501  5.438107
      ESP Fit Center 1820 is at   1.124906  1.257933  5.438107
      ESP Fit Center 1821 is at   0.917032  1.617982  5.438107
      ESP Fit Center 1822 is at   0.598550  1.885220  5.438107
      ESP Fit Center 1823 is at   0.207874  2.027415  5.438107
      ESP Fit Center 1824 is at  -0.207874  2.027415  5.438107
      ESP Fit Center 1825 is at  -0.598550  1.885220  5.438107
      ESP Fit Center 1826 is at  -0.917032  1.617982  5.438107
      ESP Fit Center 1827 is at  -1.124906  1.257933  5.438107
      ESP Fit Center 1828 is at  -1.197100  0.848501  5.438107
      ESP Fit Center 1829 is at   1.501116  0.848501  5.134090
      ESP Fit Center 1830 is at   1.440311  1.271414  5.134090
      ESP Fit Center 1831 is at   1.262820  1.660066  5.134090
      ESP Fit Center 1832 is at   0.983022  1.982969  5.134090
      ESP Fit Center 1833 is at   0.623586  2.213965  5.134090
      ESP Fit Center 1834 is at   0.213631  2.334338  5.134090
      ESP Fit Center 1835 is at  -0.213631  2.334338  5.134090
      ESP Fit Center 1836 is at  -0.623586  2.213965  5.134090
      ESP Fit Center 1837 is at  -0.983022  1.982969  5.134090
      ESP Fit Center 1838 is at  -1.262820  1.660066  5.134090
      ESP Fit Center 1839 is at  -1.440311  1.271414  5.134090
      ESP Fit Center 1840 is at  -1.501116  0.848501  5.134090
      ESP Fit Center 1841 is at   1.679594  1.262484  4.770047
      ESP Fit Center 1842 is at   1.531715  1.652407  4.770047
      ESP Fit Center 1843 is at   1.294819  1.995611  4.770047
      ESP Fit Center 1844 is at   0.982673  2.272148  4.770047
      ESP Fit Center 1845 is at   0.613417  2.465948  4.770047
      ESP Fit Center 1846 is at   0.208512  2.565749  4.770047
      ESP Fit Center 1847 is at  -0.208512  2.565749  4.770047
      ESP Fit Center 1848 is at  -0.613417  2.465948  4.770047
      ESP Fit Center 1849 is at  -0.982673  2.272148  4.770047
      ESP Fit Center 1850 is at  -1.294819  1.995611  4.770047
      ESP Fit Center 1851 is at  -1.531715  1.652407  4.770047
      ESP Fit Center 1852 is at  -1.679594  1.262484  4.770047
      ESP Fit Center 1853 is at   1.824930  1.265029  4.364230
      ESP Fit Center 1854 is at   1.686489  1.660671  4.364230
      ESP Fit Center 1855 is at   1.463480  2.015588  4.364230
      ESP Fit Center 1856 is at   1.167087  2.311981  4.364230
      ESP Fit Center 1857 is at   0.812170  2.534990  4.364230
      ESP Fit Center 1858 is at   0.416528  2.673431  4.364230
      ESP Fit Center 1859 is at   0.000000  2.720363  4.364230
      ESP Fit Center 1860 is at  -0.416528  2.673431  4.364230
      ESP Fit Center 1861 is at  -0.812170  2.534990  4.364230
      ESP Fit Center 1862 is at  -1.167087  2.311981  4.364230
      ESP Fit Center 1863 is at  -1.463480  2.015588  4.364230
      ESP Fit Center 1864 is at  -1.686489  1.660671  4.364230
      ESP Fit Center 1865 is at  -1.824930  1.265029  4.364230
      ESP Fit Center 1866 is at   1.742545  1.654688  3.936990
      ESP Fit Center 1867 is at   1.528499  2.010435  3.936990
      ESP Fit Center 1868 is at   1.242982  2.311852  3.936990
      ESP Fit Center 1869 is at   0.899344  2.544844  3.936990
      ESP Fit Center 1870 is at   0.513654  2.698517  3.936990
      ESP Fit Center 1871 is at   0.103947  2.765685  3.936990
      ESP Fit Center 1872 is at  -0.310621  2.743208  3.936990
      ESP Fit Center 1873 is at  -0.710665  2.632136  3.936990
      ESP Fit Center 1874 is at  -1.077479  2.437664  3.936990
      ESP Fit Center 1875 is at  -1.393911  2.168884  3.936990
      ESP Fit Center 1876 is at  -1.645166  1.838364  3.936990
      ESP Fit Center 1877 is at   1.463480  2.015588  3.509750
      ESP Fit Center 1878 is at   1.167087  2.311981  3.509750
      ESP Fit Center 1879 is at  -1.167087  2.311981  3.509750
      ESP Fit Center 1880 is at  -1.463480  2.015588  3.509750
      ESP Fit Center 1881 is at  -0.000000 -0.848501  5.856990
      ESP Fit Center 1882 is at   0.427240 -0.848501  5.808852
      ESP Fit Center 1883 is at   0.213620 -0.478500  5.808852
      ESP Fit Center 1884 is at  -0.213620 -0.478500  5.808852
      ESP Fit Center 1885 is at  -0.427240 -0.848501  5.808852
      ESP Fit Center 1886 is at  -0.213620 -1.218502  5.808852
      ESP Fit Center 1887 is at   0.213620 -1.218502  5.808852
      ESP Fit Center 1888 is at   0.833057 -0.848501  5.666850
      ESP Fit Center 1889 is at  -0.833057 -0.848501  5.666850
      ESP Fit Center 1890 is at  -0.721448 -1.265029  5.666850
      ESP Fit Center 1891 is at  -0.416528 -1.569949  5.666850
      ESP Fit Center 1892 is at  -0.000000 -1.681558  5.666850
      ESP Fit Center 1893 is at   0.416528 -1.569949  5.666850
      ESP Fit Center 1894 is at   0.721448 -1.265029  5.666850
      ESP Fit Center 1895 is at   1.197100 -0.848501  5.438107
      ESP Fit Center 1896 is at  -1.197100 -0.848501  5.438107
      ESP Fit Center 1897 is at  -1.124906 -1.257933  5.438107
      ESP Fit Center 1898 is at  -0.917032 -1.617982  5.438107
      ESP Fit Center 1899 is at  -0.598550 -1.885220  5.438107
      ESP Fit Center 1900 is at  -0.207874 -2.027415  5.438107
      ESP Fit Center 1901 is at   0.207874 -2.027415  5.438107
      ESP Fit Center 1902 is at   0.598550 -1.885220  5.438107
      ESP Fit Center 1903 is at   0.917032 -1.617982  5.438107
      ESP Fit Center 1904 is at   1.124906 -1.257933  5.438107
      ESP Fit Center 1905 is at   1.501116 -0.848501  5.134090
      ESP Fit Center 1906 is at  -1.501116 -0.848501  5.134090
      ESP Fit Center 1907 is at  -1.440311 -1.271414  5.134090
      ESP Fit Center 1908 is at  -1.262820 -1.660066  5.134090
      ESP Fit Center 1909 is at  -0.983022 -1.982969  5.134090
      ESP Fit Center 1910 is at  -0.623586 -2.213965  5.134090
      ESP Fit Center 1911 is at  -0.213631 -2.334338  5.134090
      ESP Fit Center 1912 is at   0.213631 -2.334338  5.134090
      ESP Fit Center 1913 is at   0.623586 -2.213965  5.134090
      ESP Fit Center 1914 is at   0.983022 -1.982969  5.134090
      ESP Fit Center 1915 is at   1.262820 -1.660066  5.134090
      ESP Fit Center 1916 is at   1.440311 -1.271414  5.134090
      ESP Fit Center 1917 is at  -1.679594 -1.262484  4.770047
      ESP Fit Center 1918 is at  -1.531715 -1.652407  4.770047
      ESP Fit Center 1919 is at  -1.294819 -1.995611  4.770047
      ESP Fit Center 1920 is at  -0.982673 -2.272148  4.770047
      ESP Fit Center 1921 is at  -0.613417 -2.465948  4.770047
      ESP Fit Center 1922 is at  -0.208512 -2.565749  4.770047
      ESP Fit Center 1923 is at   0.208512 -2.565749  4.770047
      ESP Fit Center 1924 is at   0.613417 -2.465948  4.770047
      ESP Fit Center 1925 is at   0.982673 -2.272148  4.770047
      ESP Fit Center 1926 is at   1.294819 -1.995611  4.770047
      ESP Fit Center 1927 is at   1.531715 -1.652407  4.770047
      ESP Fit Center 1928 is at   1.679594 -1.262484  4.770047
      ESP Fit Center 1929 is at  -1.824930 -1.265029  4.364230
      ESP Fit Center 1930 is at  -1.686489 -1.660671  4.364230
      ESP Fit Center 1931 is at  -1.463480 -2.015588  4.364230
      ESP Fit Center 1932 is at  -1.167087 -2.311981  4.364230
      ESP Fit Center 1933 is at  -0.812170 -2.534990  4.364230
      ESP Fit Center 1934 is at  -0.416528 -2.673431  4.364230
      ESP Fit Center 1935 is at  -0.000000 -2.720363  4.364230
      ESP Fit Center 1936 is at   0.416528 -2.673431  4.364230
      ESP Fit Center 1937 is at   0.812170 -2.534990  4.364230
      ESP Fit Center 1938 is at   1.167087 -2.311981  4.364230
      ESP Fit Center 1939 is at   1.463480 -2.015588  4.364230
      ESP Fit Center 1940 is at   1.686489 -1.660671  4.364230
      ESP Fit Center 1941 is at   1.824930 -1.265029  4.364230
      ESP Fit Center 1942 is at  -1.645166 -1.838364  3.936990
      ESP Fit Center 1943 is at  -1.393911 -2.168884  3.936990
      ESP Fit Center 1944 is at  -1.077479 -2.437664  3.936990
      ESP Fit Center 1945 is at  -0.710665 -2.632136  3.936990
      ESP Fit Center 1946 is at  -0.310621 -2.743208  3.936990
      ESP Fit Center 1947 is at   0.103947 -2.765685  3.936990
      ESP Fit Center 1948 is at   0.513654 -2.698517  3.936990
      ESP Fit Center 1949 is at   0.899344 -2.544844  3.936990
      ESP Fit Center 1950 is at   1.242982 -2.311852  3.936990
      ESP Fit Center 1951 is at   1.528499 -2.010435  3.936990
      ESP Fit Center 1952 is at   1.742545 -1.654688  3.936990
      ESP Fit Center 1953 is at  -1.463480 -2.015588  3.509750
      ESP Fit Center 1954 is at  -1.167087 -2.311981  3.509750
      ESP Fit Center 1955 is at   1.167087 -2.311981  3.509750
      ESP Fit Center 1956 is at   1.463480 -2.015588  3.509750
      ESP Fit Center 1957 is at   1.961348  1.474284 -1.715223
      ESP Fit Center 1958 is at   1.831810  1.872961 -1.715223
      ESP Fit Center 1959 is at   1.622213  2.235994 -1.715223
      ESP Fit Center 1960 is at  -1.622213  2.235994 -1.715223
      ESP Fit Center 1961 is at  -1.831810  1.872961 -1.715223
      ESP Fit Center 1962 is at  -1.961348  1.474284 -1.715223
      ESP Fit Center 1963 is at   2.154489  1.057387 -2.100672
      ESP Fit Center 1964 is at   2.113092  1.477707 -2.100672
      ESP Fit Center 1965 is at   1.990489  1.881874 -2.100672
      ESP Fit Center 1966 is at   1.791392  2.254357 -2.100672
      ESP Fit Center 1967 is at   1.523454  2.580841 -2.100672
      ESP Fit Center 1968 is at   1.196970  2.848779 -2.100672
      ESP Fit Center 1969 is at   0.824487  3.047876 -2.100672
      ESP Fit Center 1970 is at  -0.824487  3.047876 -2.100672
      ESP Fit Center 1971 is at  -1.196970  2.848779 -2.100672
      ESP Fit Center 1972 is at  -1.523454  2.580841 -2.100672
      ESP Fit Center 1973 is at  -1.791392  2.254357 -2.100672
      ESP Fit Center 1974 is at  -1.990489  1.881874 -2.100672
      ESP Fit Center 1975 is at  -2.113092  1.477707 -2.100672
      ESP Fit Center 1976 is at  -2.154489  1.057387 -2.100672
      ESP Fit Center 1977 is at   2.230445  1.057387 -2.506996
      ESP Fit Center 1978 is at   2.190138  1.479501 -2.506996
      ESP Fit Center 1979 is at   2.070673  1.886360 -2.506996
      ESP Fit Center 1980 is at   1.876369  2.263256 -2.506996
      ESP Fit Center 1981 is at   1.614249  2.596570 -2.506996
      ESP Fit Center 1982 is at   1.293785  2.874253 -2.506996
      ESP Fit Center 1983 is at   0.926560  3.086271 -2.506996
      ESP Fit Center 1984 is at   0.525847  3.224959 -2.506996
      ESP Fit Center 1985 is at   0.106129  3.285305 -2.506996
      ESP Fit Center 1986 is at  -0.317425  3.265129 -2.506996
      ESP Fit Center 1987 is at  -0.729507  3.165159 -2.506996
      ESP Fit Center 1988 is at  -1.115222  2.989009 -2.506996
      ESP Fit Center 1989 is at  -1.460631  2.743045 -2.506996
      ESP Fit Center 1990 is at  -1.753248  2.436156 -2.506996
      ESP Fit Center 1991 is at  -1.982498  2.079436 -2.506996
      ESP Fit Center 1992 is at  -2.140096  1.685776 -2.506996
      ESP Fit Center 1993 is at  -2.220345  1.269404 -2.506996
      ESP Fit Center 1994 is at  -2.220345  0.845370 -2.506996
      ESP Fit Center 1995 is at   2.230445  1.057387 -2.920358
      ESP Fit Center 1996 is at   2.190138  1.479501 -2.920358
      ESP Fit Center 1997 is at   2.070673  1.886360 -2.920358
      ESP Fit Center 1998 is at   1.876369  2.263256 -2.920358
      ESP Fit Center 1999 is at   1.614249  2.596570 -2.920358
      ESP Fit Center 2000 is at   1.293785  2.874253 -2.920358
      ESP Fit Center 2001 is at   0.926560  3.086271 -2.920358
      ESP Fit Center 2002 is at   0.525847  3.224959 -2.920358
      ESP Fit Center 2003 is at   0.106129  3.285305 -2.920358
      ESP Fit Center 2004 is at  -0.317425  3.265129 -2.920358
      ESP Fit Center 2005 is at  -0.729507  3.165159 -2.920358
      ESP Fit Center 2006 is at  -1.115222  2.989009 -2.920358
      ESP Fit Center 2007 is at  -1.460631  2.743045 -2.920358
      ESP Fit Center 2008 is at  -1.753248  2.436156 -2.920358
      ESP Fit Center 2009 is at  -1.982498  2.079436 -2.920358
      ESP Fit Center 2010 is at  -2.140096  1.685776 -2.920358
      ESP Fit Center 2011 is at  -2.220345  1.269404 -2.920358
      ESP Fit Center 2012 is at  -2.220345  0.845370 -2.920358
      ESP Fit Center 2013 is at   2.190138  0.635273 -2.920358
      ESP Fit Center 2014 is at   2.154489  1.057387 -3.326682
      ESP Fit Center 2015 is at   2.113092  1.477707 -3.326682
      ESP Fit Center 2016 is at   1.990489  1.881874 -3.326682
      ESP Fit Center 2017 is at   1.791392  2.254357 -3.326682
      ESP Fit Center 2018 is at   1.523454  2.580841 -3.326682
      ESP Fit Center 2019 is at   1.196970  2.848779 -3.326682
      ESP Fit Center 2020 is at   0.824487  3.047876 -3.326682
      ESP Fit Center 2021 is at   0.420320  3.170479 -3.326682
      ESP Fit Center 2022 is at   0.000000  3.211876 -3.326682
      ESP Fit Center 2023 is at  -0.420320  3.170479 -3.326682
      ESP Fit Center 2024 is at  -0.824487  3.047876 -3.326682
      ESP Fit Center 2025 is at  -1.196970  2.848779 -3.326682
      ESP Fit Center 2026 is at  -1.523454  2.580841 -3.326682
      ESP Fit Center 2027 is at  -1.791392  2.254357 -3.326682
      ESP Fit Center 2028 is at  -1.990489  1.881874 -3.326682
      ESP Fit Center 2029 is at  -2.113092  1.477707 -3.326682
      ESP Fit Center 2030 is at  -2.154489  1.057387 -3.326682
      ESP Fit Center 2031 is at  -2.113092  0.637067 -3.326682
      ESP Fit Center 2032 is at   2.113092  0.637067 -3.326682
      ESP Fit Center 2033 is at   2.005166  1.057387 -3.712131
      ESP Fit Center 2034 is at   1.961348  1.474284 -3.712131
      ESP Fit Center 2035 is at   1.831810  1.872961 -3.712131
      ESP Fit Center 2036 is at   1.622213  2.235994 -3.712131
      ESP Fit Center 2037 is at   1.341718  2.547516 -3.712131
      ESP Fit Center 2038 is at   1.002583  2.793911 -3.712131
      ESP Fit Center 2039 is at   0.619630  2.964413 -3.712131
      ESP Fit Center 2040 is at   0.209597  3.051568 -3.712131
      ESP Fit Center 2041 is at  -0.209597  3.051568 -3.712131
      ESP Fit Center 2042 is at  -0.619630  2.964413 -3.712131
      ESP Fit Center 2043 is at  -1.002583  2.793911 -3.712131
      ESP Fit Center 2044 is at  -1.341718  2.547516 -3.712131
      ESP Fit Center 2045 is at  -1.622213  2.235994 -3.712131
      ESP Fit Center 2046 is at  -1.831810  1.872961 -3.712131
      ESP Fit Center 2047 is at  -1.961348  1.474284 -3.712131
      ESP Fit Center 2048 is at  -2.005166  1.057387 -3.712131
      ESP Fit Center 2049 is at  -1.961348  0.640490 -3.712131
      ESP Fit Center 2050 is at  -1.831810  0.241813 -3.712131
      ESP Fit Center 2051 is at   1.831810  0.241813 -3.712131
      ESP Fit Center 2052 is at   1.961348  0.640490 -3.712131
      ESP Fit Center 2053 is at   1.787559  1.057387 -4.063579
      ESP Fit Center 2054 is at   1.739375  1.469626 -4.063579
      ESP Fit Center 2055 is at   1.597421  1.859642 -4.063579
      ESP Fit Center 2056 is at   1.369349  2.206408 -4.063579
      ESP Fit Center 2057 is at   1.067456  2.491229 -4.063579
      ESP Fit Center 2058 is at   0.708016  2.698752 -4.063579
      ESP Fit Center 2059 is at   0.310406  2.817789 -4.063579
      ESP Fit Center 2060 is at  -0.103937  2.841921 -4.063579
      ESP Fit Center 2061 is at  -0.512678  2.769849 -4.063579
      ESP Fit Center 2062 is at  -0.893779  2.605458 -4.063579
      ESP Fit Center 2063 is at  -1.226697  2.357610 -4.063579
      ESP Fit Center 2064 is at  -1.493483  2.039666 -4.063579
      ESP Fit Center 2065 is at  -1.679756  1.668768 -4.063579
      ESP Fit Center 2066 is at  -1.775472  1.264910 -4.063579
      ESP Fit Center 2067 is at  -1.775472  0.849864 -4.063579
      ESP Fit Center 2068 is at  -1.679756  0.446006 -4.063579
      ESP Fit Center 2069 is at  -1.493483  0.075108 -4.063579
      ESP Fit Center 2070 is at   1.597421  0.255132 -4.063579
      ESP Fit Center 2071 is at   1.739375  0.645148 -4.063579
      ESP Fit Center 2072 is at   1.509078  1.057387 -4.369057
      ESP Fit Center 2073 is at   1.447950  1.482543 -4.369057
      ESP Fit Center 2074 is at   1.269517  1.873256 -4.369057
      ESP Fit Center 2075 is at   0.988236  2.197872 -4.369057
      ESP Fit Center 2076 is at   0.626894  2.430093 -4.369057
      ESP Fit Center 2077 is at   0.214764  2.551105 -4.369057
      ESP Fit Center 2078 is at  -0.214764  2.551105 -4.369057
      ESP Fit Center 2079 is at  -0.626894  2.430093 -4.369057
      ESP Fit Center 2080 is at  -0.988236  2.197872 -4.369057
      ESP Fit Center 2081 is at  -1.269517  1.873256 -4.369057
      ESP Fit Center 2082 is at  -1.447950  1.482543 -4.369057
      ESP Fit Center 2083 is at  -1.509078  1.057387 -4.369057
      ESP Fit Center 2084 is at  -1.447950  0.632231 -4.369057
      ESP Fit Center 2085 is at  -1.269517  0.241518 -4.369057
      ESP Fit Center 2086 is at   1.269517  0.241518 -4.369057
      ESP Fit Center 2087 is at   1.447950  0.632231 -4.369057
      ESP Fit Center 2088 is at   1.179208  1.057387 -4.618163
      ESP Fit Center 2089 is at   1.099579  1.483366 -4.618163
      ESP Fit Center 2090 is at   0.871445  1.851814 -4.618163
      ESP Fit Center 2091 is at   0.525618  2.112971 -4.618163
      ESP Fit Center 2092 is at   0.108804  2.231565 -4.618163
      ESP Fit Center 2093 is at  -0.322706  2.191580 -4.618163
      ESP Fit Center 2094 is at  -0.710632  1.998415 -4.618163
      ESP Fit Center 2095 is at  -1.002583  1.678160 -4.618163
      ESP Fit Center 2096 is at  -1.159130  1.274066 -4.618163
      ESP Fit Center 2097 is at  -1.159130  0.840708 -4.618163
      ESP Fit Center 2098 is at  -1.002583  0.436614 -4.618163
      ESP Fit Center 2099 is at  -0.710632  0.116359 -4.618163
      ESP Fit Center 2100 is at   0.525618  0.001803 -4.618163
      ESP Fit Center 2101 is at   0.871445  0.262960 -4.618163
      ESP Fit Center 2102 is at   1.099579  0.631408 -4.618163
      ESP Fit Center 2103 is at   0.809181  1.057387 -4.802415
      ESP Fit Center 2104 is at   0.700772  1.461978 -4.802415
      ESP Fit Center 2105 is at   0.404591  1.758159 -4.802415
      ESP Fit Center 2106 is at   0.000000  1.866568 -4.802415
      ESP Fit Center 2107 is at  -0.404591  1.758159 -4.802415
      ESP Fit Center 2108 is at  -0.700772  1.461978 -4.802415
      ESP Fit Center 2109 is at  -0.809181  1.057387 -4.802415
      ESP Fit Center 2110 is at  -0.700772  0.652796 -4.802415
      ESP Fit Center 2111 is at  -0.404591  0.356615 -4.802415
      ESP Fit Center 2112 is at  -0.000000  0.248206 -4.802415
      ESP Fit Center 2113 is at   0.404591  0.356615 -4.802415
      ESP Fit Center 2114 is at   0.700772  0.652796 -4.802415
      ESP Fit Center 2115 is at   0.411599  1.057387 -4.915537
      ESP Fit Center 2116 is at   0.205799  1.413842 -4.915537
      ESP Fit Center 2117 is at  -0.205799  1.413842 -4.915537
      ESP Fit Center 2118 is at  -0.411599  1.057387 -4.915537
      ESP Fit Center 2119 is at  -0.205799  0.700932 -4.915537
      ESP Fit Center 2120 is at   0.205799  0.700932 -4.915537
      ESP Fit Center 2121 is at   0.000000  1.057387 -4.953677
      ESP Fit Center 2122 is at  -1.961348 -1.474284 -1.715223
      ESP Fit Center 2123 is at  -1.831810 -1.872961 -1.715223
      ESP Fit Center 2124 is at  -1.622213 -2.235994 -1.715223
      ESP Fit Center 2125 is at   1.622213 -2.235994 -1.715223
      ESP Fit Center 2126 is at   1.831810 -1.872961 -1.715223
      ESP Fit Center 2127 is at   1.961348 -1.474284 -1.715223
      ESP Fit Center 2128 is at   2.154489 -1.057387 -2.100672
      ESP Fit Center 2129 is at  -2.154489 -1.057387 -2.100672
      ESP Fit Center 2130 is at  -2.113092 -1.477707 -2.100672
      ESP Fit Center 2131 is at  -1.990489 -1.881874 -2.100672
      ESP Fit Center 2132 is at  -1.791392 -2.254357 -2.100672
      ESP Fit Center 2133 is at  -1.523454 -2.580841 -2.100672
      ESP Fit Center 2134 is at  -1.196970 -2.848779 -2.100672
      ESP Fit Center 2135 is at  -0.824487 -3.047876 -2.100672
      ESP Fit Center 2136 is at   0.824487 -3.047876 -2.100672
      ESP Fit Center 2137 is at   1.196970 -2.848779 -2.100672
      ESP Fit Center 2138 is at   1.523454 -2.580841 -2.100672
      ESP Fit Center 2139 is at   1.791392 -2.254357 -2.100672
      ESP Fit Center 2140 is at   1.990489 -1.881874 -2.100672
      ESP Fit Center 2141 is at   2.113092 -1.477707 -2.100672
      ESP Fit Center 2142 is at   2.230445 -1.057387 -2.506996
      ESP Fit Center 2143 is at  -2.220345 -0.845370 -2.506996
      ESP Fit Center 2144 is at  -2.220345 -1.269404 -2.506996
      ESP Fit Center 2145 is at  -2.140096 -1.685776 -2.506996
      ESP Fit Center 2146 is at  -1.982498 -2.079436 -2.506996
      ESP Fit Center 2147 is at  -1.753248 -2.436156 -2.506996
      ESP Fit Center 2148 is at  -1.460631 -2.743045 -2.506996
      ESP Fit Center 2149 is at  -1.115222 -2.989009 -2.506996
      ESP Fit Center 2150 is at  -0.729507 -3.165159 -2.506996
      ESP Fit Center 2151 is at  -0.317425 -3.265129 -2.506996
      ESP Fit Center 2152 is at   0.106129 -3.285305 -2.506996
      ESP Fit Center 2153 is at   0.525847 -3.224959 -2.506996
      ESP Fit Center 2154 is at   0.926560 -3.086271 -2.506996
      ESP Fit Center 2155 is at   1.293785 -2.874253 -2.506996
      ESP Fit Center 2156 is at   1.614249 -2.596570 -2.506996
      ESP Fit Center 2157 is at   1.876369 -2.263256 -2.506996
      ESP Fit Center 2158 is at   2.070673 -1.886360 -2.506996
      ESP Fit Center 2159 is at   2.190138 -1.479501 -2.506996
      ESP Fit Center 2160 is at   2.230445 -1.057387 -2.920358
      ESP Fit Center 2161 is at   2.190138 -0.635273 -2.920358
      ESP Fit Center 2162 is at  -2.220345 -0.845370 -2.920358
      ESP Fit Center 2163 is at  -2.220345 -1.269404 -2.920358
      ESP Fit Center 2164 is at  -2.140096 -1.685776 -2.920358
      ESP Fit Center 2165 is at  -1.982498 -2.079436 -2.920358
      ESP Fit Center 2166 is at  -1.753248 -2.436156 -2.920358
      ESP Fit Center 2167 is at  -1.460631 -2.743045 -2.920358
      ESP Fit Center 2168 is at  -1.115222 -2.989009 -2.920358
      ESP Fit Center 2169 is at  -0.729507 -3.165159 -2.920358
      ESP Fit Center 2170 is at  -0.317425 -3.265129 -2.920358
      ESP Fit Center 2171 is at   0.106129 -3.285305 -2.920358
      ESP Fit Center 2172 is at   0.525847 -3.224959 -2.920358
      ESP Fit Center 2173 is at   0.926560 -3.086271 -2.920358
      ESP Fit Center 2174 is at   1.293785 -2.874253 -2.920358
      ESP Fit Center 2175 is at   1.614249 -2.596570 -2.920358
      ESP Fit Center 2176 is at   1.876369 -2.263256 -2.920358
      ESP Fit Center 2177 is at   2.070673 -1.886360 -2.920358
      ESP Fit Center 2178 is at   2.190138 -1.479501 -2.920358
      ESP Fit Center 2179 is at   2.154489 -1.057387 -3.326682
      ESP Fit Center 2180 is at   2.113092 -0.637067 -3.326682
      ESP Fit Center 2181 is at  -2.113092 -0.637067 -3.326682
      ESP Fit Center 2182 is at  -2.154489 -1.057387 -3.326682
      ESP Fit Center 2183 is at  -2.113092 -1.477707 -3.326682
      ESP Fit Center 2184 is at  -1.990489 -1.881874 -3.326682
      ESP Fit Center 2185 is at  -1.791392 -2.254357 -3.326682
      ESP Fit Center 2186 is at  -1.523454 -2.580841 -3.326682
      ESP Fit Center 2187 is at  -1.196970 -2.848779 -3.326682
      ESP Fit Center 2188 is at  -0.824487 -3.047876 -3.326682
      ESP Fit Center 2189 is at  -0.420320 -3.170479 -3.326682
      ESP Fit Center 2190 is at  -0.000000 -3.211876 -3.326682
      ESP Fit Center 2191 is at   0.420320 -3.170479 -3.326682
      ESP Fit Center 2192 is at   0.824487 -3.047876 -3.326682
      ESP Fit Center 2193 is at   1.196970 -2.848779 -3.326682
      ESP Fit Center 2194 is at   1.523454 -2.580841 -3.326682
      ESP Fit Center 2195 is at   1.791392 -2.254357 -3.326682
      ESP Fit Center 2196 is at   1.990489 -1.881874 -3.326682
      ESP Fit Center 2197 is at   2.113092 -1.477707 -3.326682
      ESP Fit Center 2198 is at   2.005166 -1.057387 -3.712131
      ESP Fit Center 2199 is at   1.961348 -0.640490 -3.712131
      ESP Fit Center 2200 is at   1.831810 -0.241813 -3.712131
      ESP Fit Center 2201 is at  -1.831810 -0.241813 -3.712131
      ESP Fit Center 2202 is at  -1.961348 -0.640490 -3.712131
      ESP Fit Center 2203 is at  -2.005166 -1.057387 -3.712131
      ESP Fit Center 2204 is at  -1.961348 -1.474284 -3.712131
      ESP Fit Center 2205 is at  -1.831810 -1.872961 -3.712131
      ESP Fit Center 2206 is at  -1.622213 -2.235994 -3.712131
      ESP Fit Center 2207 is at  -1.341718 -2.547516 -3.712131
      ESP Fit Center 2208 is at  -1.002583 -2.793911 -3.712131
      ESP Fit Center 2209 is at  -0.619630 -2.964413 -3.712131
      ESP Fit Center 2210 is at  -0.209597 -3.051568 -3.712131
      ESP Fit Center 2211 is at   0.209597 -3.051568 -3.712131
      ESP Fit Center 2212 is at   0.619630 -2.964413 -3.712131
      ESP Fit Center 2213 is at   1.002583 -2.793911 -3.712131
      ESP Fit Center 2214 is at   1.341718 -2.547516 -3.712131
      ESP Fit Center 2215 is at   1.622213 -2.235994 -3.712131
      ESP Fit Center 2216 is at   1.831810 -1.872961 -3.712131
      ESP Fit Center 2217 is at   1.961348 -1.474284 -3.712131
      ESP Fit Center 2218 is at   1.787559 -1.057387 -4.063579
      ESP Fit Center 2219 is at   1.739375 -0.645148 -4.063579
      ESP Fit Center 2220 is at   1.597421 -0.255132 -4.063579
      ESP Fit Center 2221 is at  -1.493483 -0.075108 -4.063579
      ESP Fit Center 2222 is at  -1.679756 -0.446006 -4.063579
      ESP Fit Center 2223 is at  -1.775472 -0.849864 -4.063579
      ESP Fit Center 2224 is at  -1.775472 -1.264910 -4.063579
      ESP Fit Center 2225 is at  -1.679756 -1.668768 -4.063579
      ESP Fit Center 2226 is at  -1.493483 -2.039666 -4.063579
      ESP Fit Center 2227 is at  -1.226697 -2.357610 -4.063579
      ESP Fit Center 2228 is at  -0.893779 -2.605458 -4.063579
      ESP Fit Center 2229 is at  -0.512678 -2.769849 -4.063579
      ESP Fit Center 2230 is at  -0.103937 -2.841921 -4.063579
      ESP Fit Center 2231 is at   0.310406 -2.817789 -4.063579
      ESP Fit Center 2232 is at   0.708016 -2.698752 -4.063579
      ESP Fit Center 2233 is at   1.067456 -2.491229 -4.063579
      ESP Fit Center 2234 is at   1.369349 -2.206408 -4.063579
      ESP Fit Center 2235 is at   1.597421 -1.859642 -4.063579
      ESP Fit Center 2236 is at   1.739375 -1.469626 -4.063579
      ESP Fit Center 2237 is at   1.509078 -1.057387 -4.369057
      ESP Fit Center 2238 is at   1.447950 -0.632231 -4.369057
      ESP Fit Center 2239 is at   1.269517 -0.241518 -4.369057
      ESP Fit Center 2240 is at  -1.269517 -0.241518 -4.369057
      ESP Fit Center 2241 is at  -1.447950 -0.632231 -4.369057
      ESP Fit Center 2242 is at  -1.509078 -1.057387 -4.369057
      ESP Fit Center 2243 is at  -1.447950 -1.482543 -4.369057
      ESP Fit Center 2244 is at  -1.269517 -1.873256 -4.369057
      ESP Fit Center 2245 is at  -0.988236 -2.197872 -4.369057
      ESP Fit Center 2246 is at  -0.626894 -2.430093 -4.369057
      ESP Fit Center 2247 is at  -0.214764 -2.551105 -4.369057
      ESP Fit Center 2248 is at   0.214764 -2.551105 -4.369057
      ESP Fit Center 2249 is at   0.626894 -2.430093 -4.369057
      ESP Fit Center 2250 is at   0.988236 -2.197872 -4.369057
      ESP Fit Center 2251 is at   1.269517 -1.873256 -4.369057
      ESP Fit Center 2252 is at   1.447950 -1.482543 -4.369057
      ESP Fit Center 2253 is at   1.179208 -1.057387 -4.618163
      ESP Fit Center 2254 is at   1.099579 -0.631408 -4.618163
      ESP Fit Center 2255 is at   0.871445 -0.262960 -4.618163
      ESP Fit Center 2256 is at   0.525618 -0.001803 -4.618163
      ESP Fit Center 2257 is at  -0.710632 -0.116359 -4.618163
      ESP Fit Center 2258 is at  -1.002583 -0.436614 -4.618163
      ESP Fit Center 2259 is at  -1.159130 -0.840708 -4.618163
      ESP Fit Center 2260 is at  -1.159130 -1.274066 -4.618163
      ESP Fit Center 2261 is at  -1.002583 -1.678160 -4.618163
      ESP Fit Center 2262 is at  -0.710632 -1.998415 -4.618163
      ESP Fit Center 2263 is at  -0.322706 -2.191580 -4.618163
      ESP Fit Center 2264 is at   0.108804 -2.231565 -4.618163
      ESP Fit Center 2265 is at   0.525618 -2.112971 -4.618163
      ESP Fit Center 2266 is at   0.871445 -1.851814 -4.618163
      ESP Fit Center 2267 is at   1.099579 -1.483366 -4.618163
      ESP Fit Center 2268 is at   0.809181 -1.057387 -4.802415
      ESP Fit Center 2269 is at   0.700772 -0.652796 -4.802415
      ESP Fit Center 2270 is at   0.404591 -0.356615 -4.802415
      ESP Fit Center 2271 is at  -0.000000 -0.248206 -4.802415
      ESP Fit Center 2272 is at  -0.404591 -0.356615 -4.802415
      ESP Fit Center 2273 is at  -0.700772 -0.652796 -4.802415
      ESP Fit Center 2274 is at  -0.809181 -1.057387 -4.802415
      ESP Fit Center 2275 is at  -0.700772 -1.461978 -4.802415
      ESP Fit Center 2276 is at  -0.404591 -1.758159 -4.802415
      ESP Fit Center 2277 is at  -0.000000 -1.866568 -4.802415
      ESP Fit Center 2278 is at   0.404591 -1.758159 -4.802415
      ESP Fit Center 2279 is at   0.700772 -1.461978 -4.802415
      ESP Fit Center 2280 is at   0.411599 -1.057387 -4.915537
      ESP Fit Center 2281 is at   0.205799 -0.700932 -4.915537
      ESP Fit Center 2282 is at  -0.205799 -0.700932 -4.915537
      ESP Fit Center 2283 is at  -0.411599 -1.057387 -4.915537
      ESP Fit Center 2284 is at  -0.205799 -1.413842 -4.915537
      ESP Fit Center 2285 is at   0.205799 -1.413842 -4.915537
      ESP Fit Center 2286 is at   0.000000 -1.057387 -4.953677
      ESP Fit Center 2287 is at   2.666759  1.205317  0.398133
      ESP Fit Center 2288 is at   2.633926  1.622490  0.398133
      ESP Fit Center 2289 is at   2.536238  2.029391  0.398133
      ESP Fit Center 2290 is at   2.376099  2.416000  0.398133
      ESP Fit Center 2291 is at   2.157453  2.772798  0.398133
      ESP Fit Center 2292 is at   1.885683  3.091000  0.398133
      ESP Fit Center 2293 is at   1.567481  3.362770  0.398133
      ESP Fit Center 2294 is at  -1.567481  3.362770  0.398133
      ESP Fit Center 2295 is at  -1.885683  3.091000  0.398133
      ESP Fit Center 2296 is at  -2.157453  2.772798  0.398133
      ESP Fit Center 2297 is at  -2.376099  2.416000  0.398133
      ESP Fit Center 2298 is at  -2.536238  2.029391  0.398133
      ESP Fit Center 2299 is at  -2.633926  1.622490  0.398133
      ESP Fit Center 2300 is at  -2.666759  1.205317  0.398133
      ESP Fit Center 2301 is at  -2.633926  0.788144  0.398133
      ESP Fit Center 2302 is at  -2.536238  0.381243  0.398133
      ESP Fit Center 2303 is at   2.536238  0.381243  0.398133
      ESP Fit Center 2304 is at   2.633926  0.788144  0.398133
      ESP Fit Center 2305 is at   2.700000  1.205317 -0.024240
      ESP Fit Center 2306 is at   2.668357  1.617470 -0.024240
      ESP Fit Center 2307 is at   2.574170  2.019963 -0.024240
      ESP Fit Center 2308 is at   2.419647  2.403361 -0.024240
      ESP Fit Center 2309 is at   2.208409  2.758677 -0.024240
      ESP Fit Center 2310 is at   1.945408  3.077585 -0.024240
      ESP Fit Center 2311 is at  -1.796379  3.221011 -0.024240
      ESP Fit Center 2312 is at  -2.083021  2.923172 -0.024240
      ESP Fit Center 2313 is at  -2.320838  2.585067 -0.024240
      ESP Fit Center 2314 is at  -2.504257  2.214623 -0.024240
      ESP Fit Center 2315 is at  -2.628978  1.820521 -0.024240
      ESP Fit Center 2316 is at  -2.692078  1.412000 -0.024240
      ESP Fit Center 2317 is at  -2.692078  0.998634 -0.024240
      ESP Fit Center 2318 is at  -2.628978  0.590113 -0.024240
      ESP Fit Center 2319 is at   2.668357  0.793164 -0.024240
      ESP Fit Center 2320 is at   2.666759  1.205317 -0.446613
      ESP Fit Center 2321 is at   2.633926  1.622490 -0.446613
      ESP Fit Center 2322 is at   2.536238  2.029391 -0.446613
      ESP Fit Center 2323 is at   2.376099  2.416000 -0.446613
      ESP Fit Center 2324 is at   2.157453  2.772798 -0.446613
      ESP Fit Center 2325 is at  -2.157453  2.772798 -0.446613
      ESP Fit Center 2326 is at  -2.376099  2.416000 -0.446613
      ESP Fit Center 2327 is at  -2.536238  2.029391 -0.446613
      ESP Fit Center 2328 is at  -2.633926  1.622490 -0.446613
      ESP Fit Center 2329 is at  -2.666759  1.205317 -0.446613
      ESP Fit Center 2330 is at  -2.633926  0.788144 -0.446613
      ESP Fit Center 2331 is at   2.633926  0.788144 -0.446613
      ESP Fit Center 2332 is at   2.567853  1.205317 -0.858586
      ESP Fit Center 2333 is at   2.532830  1.627972 -0.858586
      ESP Fit Center 2334 is at   2.428719  2.039097 -0.858586
      ESP Fit Center 2335 is at   2.258359  2.427480 -0.858586
      ESP Fit Center 2336 is at  -2.258359  2.427480 -0.858586
      ESP Fit Center 2337 is at  -2.428719  2.039097 -0.858586
      ESP Fit Center 2338 is at  -2.532830  1.627972 -0.858586
      ESP Fit Center 2339 is at  -2.567853  1.205317 -0.858586
      ESP Fit Center 2340 is at   2.405718  1.205317 -1.250014
      ESP Fit Center 2341 is at   2.369169  1.623065 -1.250014
      ESP Fit Center 2342 is at   2.260635  2.028121 -1.250014
      ESP Fit Center 2343 is at   2.083413  2.408176 -1.250014
      ESP Fit Center 2344 is at  -2.083413  2.408176 -1.250014
      ESP Fit Center 2345 is at  -2.260635  2.028121 -1.250014
      ESP Fit Center 2346 is at  -2.369169  1.623065 -1.250014
      ESP Fit Center 2347 is at  -2.405718  1.205317 -1.250014
      ESP Fit Center 2348 is at   2.666759 -1.205317  0.398133
      ESP Fit Center 2349 is at   2.633926 -0.788144  0.398133
      ESP Fit Center 2350 is at   2.536238 -0.381243  0.398133
      ESP Fit Center 2351 is at  -2.536238 -0.381243  0.398133
      ESP Fit Center 2352 is at  -2.633926 -0.788144  0.398133
      ESP Fit Center 2353 is at  -2.666759 -1.205317  0.398133
      ESP Fit Center 2354 is at  -2.633926 -1.622490  0.398133
      ESP Fit Center 2355 is at  -2.536238 -2.029391  0.398133
      ESP Fit Center 2356 is at  -2.376099 -2.416000  0.398133
      ESP Fit Center 2357 is at  -2.157453 -2.772798  0.398133
      ESP Fit Center 2358 is at  -1.885683 -3.091000  0.398133
      ESP Fit Center 2359 is at  -1.567481 -3.362770  0.398133
      ESP Fit Center 2360 is at   1.567481 -3.362770  0.398133
      ESP Fit Center 2361 is at   1.885683 -3.091000  0.398133
      ESP Fit Center 2362 is at   2.157453 -2.772798  0.398133
      ESP Fit Center 2363 is at   2.376099 -2.416000  0.398133
      ESP Fit Center 2364 is at   2.536238 -2.029391  0.398133
      ESP Fit Center 2365 is at   2.633926 -1.622490  0.398133
      ESP Fit Center 2366 is at   2.700000 -1.205317 -0.024240
      ESP Fit Center 2367 is at   2.668357 -0.793164 -0.024240
      ESP Fit Center 2368 is at  -2.628978 -0.590113 -0.024240
      ESP Fit Center 2369 is at  -2.692078 -0.998634 -0.024240
      ESP Fit Center 2370 is at  -2.692078 -1.412000 -0.024240
      ESP Fit Center 2371 is at  -2.628978 -1.820521 -0.024240
      ESP Fit Center 2372 is at  -2.504257 -2.214623 -0.024240
      ESP Fit Center 2373 is at  -2.320838 -2.585067 -0.024240
      ESP Fit Center 2374 is at  -2.083021 -2.923172 -0.024240
      ESP Fit Center 2375 is at  -1.796379 -3.221011 -0.024240
      ESP Fit Center 2376 is at   1.945408 -3.077585 -0.024240
      ESP Fit Center 2377 is at   2.208409 -2.758677 -0.024240
      ESP Fit Center 2378 is at   2.419647 -2.403361 -0.024240
      ESP Fit Center 2379 is at   2.574170 -2.019963 -0.024240
      ESP Fit Center 2380 is at   2.668357 -1.617470 -0.024240
      ESP Fit Center 2381 is at   2.666759 -1.205317 -0.446613
      ESP Fit Center 2382 is at   2.633926 -0.788144 -0.446613
      ESP Fit Center 2383 is at  -2.633926 -0.788144 -0.446613
      ESP Fit Center 2384 is at  -2.666759 -1.205317 -0.446613
      ESP Fit Center 2385 is at  -2.633926 -1.622490 -0.446613
      ESP Fit Center 2386 is at  -2.536238 -2.029391 -0.446613
      ESP Fit Center 2387 is at  -2.376099 -2.416000 -0.446613
      ESP Fit Center 2388 is at  -2.157453 -2.772798 -0.446613
      ESP Fit Center 2389 is at   2.157453 -2.772798 -0.446613
      ESP Fit Center 2390 is at   2.376099 -2.416000 -0.446613
      ESP Fit Center 2391 is at   2.536238 -2.029391 -0.446613
      ESP Fit Center 2392 is at   2.633926 -1.622490 -0.446613
      ESP Fit Center 2393 is at   2.567853 -1.205317 -0.858586
      ESP Fit Center 2394 is at  -2.567853 -1.205317 -0.858586
      ESP Fit Center 2395 is at  -2.532830 -1.627972 -0.858586
      ESP Fit Center 2396 is at  -2.428719 -2.039097 -0.858586
      ESP Fit Center 2397 is at  -2.258359 -2.427480 -0.858586
      ESP Fit Center 2398 is at   2.258359 -2.427480 -0.858586
      ESP Fit Center 2399 is at   2.428719 -2.039097 -0.858586
      ESP Fit Center 2400 is at   2.532830 -1.627972 -0.858586
      ESP Fit Center 2401 is at   2.405718 -1.205317 -1.250014
      ESP Fit Center 2402 is at  -2.405718 -1.205317 -1.250014
      ESP Fit Center 2403 is at  -2.369169 -1.623065 -1.250014
      ESP Fit Center 2404 is at  -2.260635 -2.028121 -1.250014
      ESP Fit Center 2405 is at  -2.083413 -2.408176 -1.250014
      ESP Fit Center 2406 is at   2.083413 -2.408176 -1.250014
      ESP Fit Center 2407 is at   2.260635 -2.028121 -1.250014
      ESP Fit Center 2408 is at   2.369169 -1.623065 -1.250014
      ESP Fit Center 2409 is at   2.144872  1.620444  2.937318
      ESP Fit Center 2410 is at   2.027877  2.018893  2.937318
      ESP Fit Center 2411 is at  -1.941524  2.207979  2.937318
      ESP Fit Center 2412 is at  -2.095865  1.822455  2.937318
      ESP Fit Center 2413 is at   2.405718  1.207054  2.576072
      ESP Fit Center 2414 is at   2.369169  1.624802  2.576072
      ESP Fit Center 2415 is at   2.260635  2.029858  2.576072
      ESP Fit Center 2416 is at   2.083413  2.409913  2.576072
      ESP Fit Center 2417 is at  -2.083413  2.409913  2.576072
      ESP Fit Center 2418 is at  -2.260635  2.029858  2.576072
      ESP Fit Center 2419 is at  -2.369169  1.624802  2.576072
      ESP Fit Center 2420 is at  -2.405718  1.207054  2.576072
      ESP Fit Center 2421 is at   2.567853  1.207054  2.184644
      ESP Fit Center 2422 is at   2.532830  1.629709  2.184644
      ESP Fit Center 2423 is at   2.428719  2.040834  2.184644
      ESP Fit Center 2424 is at   2.258359  2.429217  2.184644
      ESP Fit Center 2425 is at  -2.258359  2.429217  2.184644
      ESP Fit Center 2426 is at  -2.428719  2.040834  2.184644
      ESP Fit Center 2427 is at  -2.532830  1.629709  2.184644
      ESP Fit Center 2428 is at  -2.567853  1.207054  2.184644
      ESP Fit Center 2429 is at   2.666759  1.207054  1.772671
      ESP Fit Center 2430 is at   2.633926  1.624227  1.772671
      ESP Fit Center 2431 is at   2.536238  2.031128  1.772671
      ESP Fit Center 2432 is at   2.376099  2.417737  1.772671
      ESP Fit Center 2433 is at   2.157453  2.774535  1.772671
      ESP Fit Center 2434 is at  -2.157453  2.774535  1.772671
      ESP Fit Center 2435 is at  -2.376099  2.417737  1.772671
      ESP Fit Center 2436 is at  -2.536238  2.031128  1.772671
      ESP Fit Center 2437 is at  -2.633926  1.624227  1.772671
      ESP Fit Center 2438 is at  -2.666759  1.207054  1.772671
      ESP Fit Center 2439 is at  -2.633926  0.789881  1.772671
      ESP Fit Center 2440 is at   2.633926  0.789881  1.772671
      ESP Fit Center 2441 is at   2.700000  1.207054  1.350298
      ESP Fit Center 2442 is at   2.668357  1.619207  1.350298
      ESP Fit Center 2443 is at   2.574170  2.021700  1.350298
      ESP Fit Center 2444 is at   2.419647  2.405098  1.350298
      ESP Fit Center 2445 is at   2.208409  2.760414  1.350298
      ESP Fit Center 2446 is at   1.945408  3.079322  1.350298
      ESP Fit Center 2447 is at  -1.796379  3.222748  1.350298
      ESP Fit Center 2448 is at  -2.083021  2.924909  1.350298
      ESP Fit Center 2449 is at  -2.320838  2.586804  1.350298
      ESP Fit Center 2450 is at  -2.504257  2.216360  1.350298
      ESP Fit Center 2451 is at  -2.628978  1.822258  1.350298
      ESP Fit Center 2452 is at  -2.692078  1.413737  1.350298
      ESP Fit Center 2453 is at  -2.692078  1.000371  1.350298
      ESP Fit Center 2454 is at  -2.628978  0.591850  1.350298
      ESP Fit Center 2455 is at   2.668357  0.794901  1.350298
      ESP Fit Center 2456 is at   2.666759  1.207054  0.927925
      ESP Fit Center 2457 is at   2.633926  1.624227  0.927925
      ESP Fit Center 2458 is at   2.536238  2.031128  0.927925
      ESP Fit Center 2459 is at   2.376099  2.417737  0.927925
      ESP Fit Center 2460 is at   2.157453  2.774535  0.927925
      ESP Fit Center 2461 is at   1.885683  3.092737  0.927925
      ESP Fit Center 2462 is at   1.567481  3.364507  0.927925
      ESP Fit Center 2463 is at  -1.567481  3.364507  0.927925
      ESP Fit Center 2464 is at  -1.885683  3.092737  0.927925
      ESP Fit Center 2465 is at  -2.157453  2.774535  0.927925
      ESP Fit Center 2466 is at  -2.376099  2.417737  0.927925
      ESP Fit Center 2467 is at  -2.536238  2.031128  0.927925
      ESP Fit Center 2468 is at  -2.633926  1.624227  0.927925
      ESP Fit Center 2469 is at  -2.666759  1.207054  0.927925
      ESP Fit Center 2470 is at  -2.633926  0.789881  0.927925
      ESP Fit Center 2471 is at  -2.536238  0.382980  0.927925
      ESP Fit Center 2472 is at   2.536238  0.382980  0.927925
      ESP Fit Center 2473 is at   2.633926  0.789881  0.927925
      ESP Fit Center 2474 is at  -2.095865 -1.822455  2.937318
      ESP Fit Center 2475 is at  -1.941524 -2.207979  2.937318
      ESP Fit Center 2476 is at   2.027877 -2.018893  2.937318
      ESP Fit Center 2477 is at   2.144872 -1.620444  2.937318
      ESP Fit Center 2478 is at   2.405718 -1.207054  2.576072
      ESP Fit Center 2479 is at  -2.405718 -1.207054  2.576072
      ESP Fit Center 2480 is at  -2.369169 -1.624802  2.576072
      ESP Fit Center 2481 is at  -2.260635 -2.029858  2.576072
      ESP Fit Center 2482 is at  -2.083413 -2.409913  2.576072
      ESP Fit Center 2483 is at   2.083413 -2.409913  2.576072
      ESP Fit Center 2484 is at   2.260635 -2.029858  2.576072
      ESP Fit Center 2485 is at   2.369169 -1.624802  2.576072
      ESP Fit Center 2486 is at   2.567853 -1.207054  2.184644
      ESP Fit Center 2487 is at  -2.567853 -1.207054  2.184644
      ESP Fit Center 2488 is at  -2.532830 -1.629709  2.184644
      ESP Fit Center 2489 is at  -2.428719 -2.040834  2.184644
      ESP Fit Center 2490 is at  -2.258359 -2.429217  2.184644
      ESP Fit Center 2491 is at   2.258359 -2.429217  2.184644
      ESP Fit Center 2492 is at   2.428719 -2.040834  2.184644
      ESP Fit Center 2493 is at   2.532830 -1.629709  2.184644
      ESP Fit Center 2494 is at   2.666759 -1.207054  1.772671
      ESP Fit Center 2495 is at   2.633926 -0.789881  1.772671
      ESP Fit Center 2496 is at  -2.633926 -0.789881  1.772671
      ESP Fit Center 2497 is at  -2.666759 -1.207054  1.772671
      ESP Fit Center 2498 is at  -2.633926 -1.624227  1.772671
      ESP Fit Center 2499 is at  -2.536238 -2.031128  1.772671
      ESP Fit Center 2500 is at  -2.376099 -2.417737  1.772671
      ESP Fit Center 2501 is at  -2.157453 -2.774535  1.772671
      ESP Fit Center 2502 is at   2.157453 -2.774535  1.772671
      ESP Fit Center 2503 is at   2.376099 -2.417737  1.772671
      ESP Fit Center 2504 is at   2.536238 -2.031128  1.772671
      ESP Fit Center 2505 is at   2.633926 -1.624227  1.772671
      ESP Fit Center 2506 is at   2.700000 -1.207054  1.350298
      ESP Fit Center 2507 is at   2.668357 -0.794901  1.350298
      ESP Fit Center 2508 is at  -2.628978 -0.591850  1.350298
      ESP Fit Center 2509 is at  -2.692078 -1.000371  1.350298
      ESP Fit Center 2510 is at  -2.692078 -1.413737  1.350298
      ESP Fit Center 2511 is at  -2.628978 -1.822258  1.350298
      ESP Fit Center 2512 is at  -2.504257 -2.216360  1.350298
      ESP Fit Center 2513 is at  -2.320838 -2.586804  1.350298
      ESP Fit Center 2514 is at  -2.083021 -2.924909  1.350298
      ESP Fit Center 2515 is at  -1.796379 -3.222748  1.350298
      ESP Fit Center 2516 is at   1.945408 -3.079322  1.350298
      ESP Fit Center 2517 is at   2.208409 -2.760414  1.350298
      ESP Fit Center 2518 is at   2.419647 -2.405098  1.350298
      ESP Fit Center 2519 is at   2.574170 -2.021700  1.350298
      ESP Fit Center 2520 is at   2.668357 -1.619207  1.350298
      ESP Fit Center 2521 is at   2.666759 -1.207054  0.927925
      ESP Fit Center 2522 is at   2.633926 -0.789881  0.927925
      ESP Fit Center 2523 is at   2.536238 -0.382980  0.927925
      ESP Fit Center 2524 is at  -2.536238 -0.382980  0.927925
      ESP Fit Center 2525 is at  -2.633926 -0.789881  0.927925
      ESP Fit Center 2526 is at  -2.666759 -1.207054  0.927925
      ESP Fit Center 2527 is at  -2.633926 -1.624227  0.927925
      ESP Fit Center 2528 is at  -2.536238 -2.031128  0.927925
      ESP Fit Center 2529 is at  -2.376099 -2.417737  0.927925
      ESP Fit Center 2530 is at  -2.157453 -2.774535  0.927925
      ESP Fit Center 2531 is at  -1.885683 -3.092737  0.927925
      ESP Fit Center 2532 is at  -1.567481 -3.364507  0.927925
      ESP Fit Center 2533 is at   1.567481 -3.364507  0.927925
      ESP Fit Center 2534 is at   1.885683 -3.092737  0.927925
      ESP Fit Center 2535 is at   2.157453 -2.774535  0.927925
      ESP Fit Center 2536 is at   2.376099 -2.417737  0.927925
      ESP Fit Center 2537 is at   2.536238 -2.031128  0.927925
      ESP Fit Center 2538 is at   2.633926 -1.624227  0.927925
      ESP Fit Center 2539 is at   2.666759 -0.000000  2.485663
      ESP Fit Center 2540 is at   2.633926  0.417173  2.485663
      ESP Fit Center 2541 is at   2.536238  0.824074  2.485663
      ESP Fit Center 2542 is at  -2.536238  0.824074  2.485663
      ESP Fit Center 2543 is at  -2.633926  0.417173  2.485663
      ESP Fit Center 2544 is at  -2.666759  0.000000  2.485663
      ESP Fit Center 2545 is at  -2.633926 -0.417173  2.485663
      ESP Fit Center 2546 is at  -2.536238 -0.824074  2.485663
      ESP Fit Center 2547 is at   2.536238 -0.824074  2.485663
      ESP Fit Center 2548 is at   2.633926 -0.417173  2.485663
      ESP Fit Center 2549 is at   2.700000 -0.000000  2.063290
      ESP Fit Center 2550 is at   2.668357  0.412153  2.063290
      ESP Fit Center 2551 is at  -2.628978  0.615204  2.063290
      ESP Fit Center 2552 is at  -2.692078  0.206683  2.063290
      ESP Fit Center 2553 is at  -2.692078 -0.206683  2.063290
      ESP Fit Center 2554 is at  -2.628978 -0.615204  2.063290
      ESP Fit Center 2555 is at   2.668357 -0.412153  2.063290
      ESP Fit Center 2556 is at   2.666759 -0.000000  1.640917
      ESP Fit Center 2557 is at   2.633926  0.417173  1.640917
      ESP Fit Center 2558 is at  -2.633926  0.417173  1.640917
      ESP Fit Center 2559 is at  -2.666759  0.000000  1.640917
      ESP Fit Center 2560 is at  -2.633926 -0.417173  1.640917
      ESP Fit Center 2561 is at   2.633926 -0.417173  1.640917
      ESP Fit Center 2562 is at   2.567853 -0.000000  1.228944
      ESP Fit Center 2563 is at  -2.567853  0.000000  1.228944
      ESP Fit Center 2564 is at   2.405718 -0.000000  0.837516
      ESP Fit Center 2565 is at  -2.405718  0.000000  0.837516
      ESP Fit Center 2566 is at   2.405718  0.000000  0.515367
      ESP Fit Center 2567 is at  -2.405718  0.000000  0.515367
      ESP Fit Center 2568 is at   2.567853  0.000000  0.123939
      ESP Fit Center 2569 is at  -2.567853  0.000000  0.123939
      ESP Fit Center 2570 is at   2.666759  0.000000 -0.288034
      ESP Fit Center 2571 is at   2.633926  0.417173 -0.288034
      ESP Fit Center 2572 is at  -2.633926  0.417173 -0.288034
      ESP Fit Center 2573 is at  -2.666759  0.000000 -0.288034
      ESP Fit Center 2574 is at  -2.633926 -0.417173 -0.288034
      ESP Fit Center 2575 is at   2.633926 -0.417173 -0.288034
      ESP Fit Center 2576 is at   2.700000  0.000000 -0.710407
      ESP Fit Center 2577 is at   2.668357  0.412153 -0.710407
      ESP Fit Center 2578 is at  -2.628978  0.615204 -0.710407
      ESP Fit Center 2579 is at  -2.692078  0.206683 -0.710407
      ESP Fit Center 2580 is at  -2.692078 -0.206683 -0.710407
      ESP Fit Center 2581 is at  -2.628978 -0.615204 -0.710407
      ESP Fit Center 2582 is at   2.668357 -0.412153 -0.710407
      ESP Fit Center 2583 is at   2.666759  0.000000 -1.132780
      ESP Fit Center 2584 is at   2.633926  0.417173 -1.132780
      ESP Fit Center 2585 is at   2.536238  0.824074 -1.132780
      ESP Fit Center 2586 is at  -2.536238  0.824074 -1.132780
      ESP Fit Center 2587 is at  -2.633926  0.417173 -1.132780
      ESP Fit Center 2588 is at  -2.666759  0.000000 -1.132780
      ESP Fit Center 2589 is at  -2.633926 -0.417173 -1.132780
      ESP Fit Center 2590 is at  -2.536238 -0.824074 -1.132780
      ESP Fit Center 2591 is at   2.536238 -0.824074 -1.132780
      ESP Fit Center 2592 is at   2.633926 -0.417173 -1.132780
      ESP Fit Center 2593 is at   0.711349  3.776199  0.629673
      ESP Fit Center 2594 is at   0.311868  3.895795  0.629673
      ESP Fit Center 2595 is at  -0.104427  3.920042  0.629673
      ESP Fit Center 2596 is at  -0.515091  3.847631  0.629673
      ESP Fit Center 2597 is at  -0.897987  3.682465  0.629673
      ESP Fit Center 2598 is at   1.335304  3.610111  0.256237
      ESP Fit Center 2599 is at   0.997790  3.855329  0.256237
      ESP Fit Center 2600 is at   0.616668  4.025015  0.256237
      ESP Fit Center 2601 is at   0.208595  4.111754  0.256237
      ESP Fit Center 2602 is at  -0.208595  4.111754  0.256237
      ESP Fit Center 2603 is at  -0.616668  4.025015  0.256237
      ESP Fit Center 2604 is at  -0.997790  3.855329  0.256237
      ESP Fit Center 2605 is at  -1.335304  3.610111  0.256237
      ESP Fit Center 2606 is at   1.761465  3.304079 -0.148964
      ESP Fit Center 2607 is at   1.498003  3.625109 -0.148964
      ESP Fit Center 2608 is at   1.176973  3.888571 -0.148964
      ESP Fit Center 2609 is at   0.810713  4.084341 -0.148964
      ESP Fit Center 2610 is at   0.413298  4.204896 -0.148964
      ESP Fit Center 2611 is at   0.000000  4.245602 -0.148964
      ESP Fit Center 2612 is at  -0.413298  4.204896 -0.148964
      ESP Fit Center 2613 is at  -0.810713  4.084341 -0.148964
      ESP Fit Center 2614 is at  -1.176973  3.888571 -0.148964
      ESP Fit Center 2615 is at  -1.498003  3.625109 -0.148964
      ESP Fit Center 2616 is at  -1.761465  3.304079 -0.148964
      ESP Fit Center 2617 is at   2.005275  2.929897 -0.570359
      ESP Fit Center 2618 is at   1.817108  3.294890 -0.570359
      ESP Fit Center 2619 is at   1.563266  3.617677 -0.570359
      ESP Fit Center 2620 is at   1.252923  3.886590 -0.570359
      ESP Fit Center 2621 is at   0.897296  4.091911 -0.570359
      ESP Fit Center 2622 is at   0.509239  4.226219 -0.570359
      ESP Fit Center 2623 is at   0.102777  4.284659 -0.570359
      ESP Fit Center 2624 is at  -0.307400  4.265120 -0.570359
      ESP Fit Center 2625 is at  -0.706467  4.168308 -0.570359
      ESP Fit Center 2626 is at  -1.080000  3.997721 -0.570359
      ESP Fit Center 2627 is at  -1.414499  3.759525 -0.570359
      ESP Fit Center 2628 is at  -1.697875  3.462329 -0.570359
      ESP Fit Center 2629 is at  -1.919885  3.116875 -0.570359
      ESP Fit Center 2630 is at   1.957235  2.937819 -0.991754
      ESP Fit Center 2631 is at   1.761465  3.304079 -0.991754
      ESP Fit Center 2632 is at   1.498003  3.625109 -0.991754
      ESP Fit Center 2633 is at   1.176973  3.888571 -0.991754
      ESP Fit Center 2634 is at   0.810713  4.084341 -0.991754
      ESP Fit Center 2635 is at   0.413298  4.204896 -0.991754
      ESP Fit Center 2636 is at   0.000000  4.245602 -0.991754
      ESP Fit Center 2637 is at  -0.413298  4.204896 -0.991754
      ESP Fit Center 2638 is at  -0.810713  4.084341 -0.991754
      ESP Fit Center 2639 is at  -1.176973  3.888571 -0.991754
      ESP Fit Center 2640 is at  -1.498003  3.625109 -0.991754
      ESP Fit Center 2641 is at  -1.761465  3.304079 -0.991754
      ESP Fit Center 2642 is at  -1.957235  2.937819 -0.991754
      ESP Fit Center 2643 is at   1.951972  2.542010 -1.396955
      ESP Fit Center 2644 is at   1.823053  2.938781 -1.396955
      ESP Fit Center 2645 is at   1.614458  3.300078 -1.396955
      ESP Fit Center 2646 is at   1.335304  3.610111 -1.396955
      ESP Fit Center 2647 is at   0.997790  3.855329 -1.396955
      ESP Fit Center 2648 is at   0.616668  4.025015 -1.396955
      ESP Fit Center 2649 is at   0.208595  4.111754 -1.396955
      ESP Fit Center 2650 is at  -0.208595  4.111754 -1.396955
      ESP Fit Center 2651 is at  -0.616668  4.025015 -1.396955
      ESP Fit Center 2652 is at  -0.997790  3.855329 -1.396955
      ESP Fit Center 2653 is at  -1.335304  3.610111 -1.396955
      ESP Fit Center 2654 is at  -1.614458  3.300078 -1.396955
      ESP Fit Center 2655 is at  -1.823053  2.938781 -1.396955
      ESP Fit Center 2656 is at  -1.951972  2.542010 -1.396955
      ESP Fit Center 2657 is at   1.604941  2.933138 -1.770391
      ESP Fit Center 2658 is at   1.375796  3.281536 -1.770391
      ESP Fit Center 2659 is at   1.072482  3.567699 -1.770391
      ESP Fit Center 2660 is at   0.711349  3.776199 -1.770391
      ESP Fit Center 2661 is at   0.311868  3.895795 -1.770391
      ESP Fit Center 2662 is at  -0.104427  3.920042 -1.770391
      ESP Fit Center 2663 is at  -0.515091  3.847631 -1.770391
      ESP Fit Center 2664 is at  -0.897987  3.682465 -1.770391
      ESP Fit Center 2665 is at  -1.232472  3.433450 -1.770391
      ESP Fit Center 2666 is at  -1.500515  3.114010 -1.770391
      ESP Fit Center 2667 is at  -1.687664  2.741365 -1.770391
      ESP Fit Center 2668 is at   0.702681  3.483218 -2.097710
      ESP Fit Center 2669 is at   0.310749  3.622511 -2.097710
      ESP Fit Center 2670 is at  -0.104230  3.650896 -2.097710
      ESP Fit Center 2671 is at  -0.511479  3.566269 -2.097710
      ESP Fit Center 2672 is at  -0.880793  3.374905 -2.097710
      ESP Fit Center 2673 is at  -0.897987 -3.682465  0.629673
      ESP Fit Center 2674 is at  -0.515091 -3.847631  0.629673
      ESP Fit Center 2675 is at  -0.104427 -3.920042  0.629673
      ESP Fit Center 2676 is at   0.311868 -3.895795  0.629673
      ESP Fit Center 2677 is at   0.711349 -3.776199  0.629673
      ESP Fit Center 2678 is at  -1.335304 -3.610111  0.256237
      ESP Fit Center 2679 is at  -0.997790 -3.855329  0.256237
      ESP Fit Center 2680 is at  -0.616668 -4.025015  0.256237
      ESP Fit Center 2681 is at  -0.208595 -4.111754  0.256237
      ESP Fit Center 2682 is at   0.208595 -4.111754  0.256237
      ESP Fit Center 2683 is at   0.616668 -4.025015  0.256237
      ESP Fit Center 2684 is at   0.997790 -3.855329  0.256237
      ESP Fit Center 2685 is at   1.335304 -3.610111  0.256237
      ESP Fit Center 2686 is at  -1.761465 -3.304079 -0.148964
      ESP Fit Center 2687 is at  -1.498003 -3.625109 -0.148964
      ESP Fit Center 2688 is at  -1.176973 -3.888571 -0.148964
      ESP Fit Center 2689 is at  -0.810713 -4.084341 -0.148964
      ESP Fit Center 2690 is at  -0.413298 -4.204896 -0.148964
      ESP Fit Center 2691 is at  -0.000000 -4.245602 -0.148964
      ESP Fit Center 2692 is at   0.413298 -4.204896 -0.148964
      ESP Fit Center 2693 is at   0.810713 -4.084341 -0.148964
      ESP Fit Center 2694 is at   1.176973 -3.888571 -0.148964
      ESP Fit Center 2695 is at   1.498003 -3.625109 -0.148964
      ESP Fit Center 2696 is at   1.761465 -3.304079 -0.148964
      ESP Fit Center 2697 is at  -1.919885 -3.116875 -0.570359
      ESP Fit Center 2698 is at  -1.697875 -3.462329 -0.570359
      ESP Fit Center 2699 is at  -1.414499 -3.759525 -0.570359
      ESP Fit Center 2700 is at  -1.080000 -3.997721 -0.570359
      ESP Fit Center 2701 is at  -0.706467 -4.168308 -0.570359
      ESP Fit Center 2702 is at  -0.307400 -4.265120 -0.570359
      ESP Fit Center 2703 is at   0.102777 -4.284659 -0.570359
      ESP Fit Center 2704 is at   0.509239 -4.226219 -0.570359
      ESP Fit Center 2705 is at   0.897296 -4.091911 -0.570359
      ESP Fit Center 2706 is at   1.252923 -3.886590 -0.570359
      ESP Fit Center 2707 is at   1.563266 -3.617677 -0.570359
      ESP Fit Center 2708 is at   1.817108 -3.294890 -0.570359
      ESP Fit Center 2709 is at   2.005275 -2.929897 -0.570359
      ESP Fit Center 2710 is at  -1.957235 -2.937819 -0.991754
      ESP Fit Center 2711 is at  -1.761465 -3.304079 -0.991754
      ESP Fit Center 2712 is at  -1.498003 -3.625109 -0.991754
      ESP Fit Center 2713 is at  -1.176973 -3.888571 -0.991754
      ESP Fit Center 2714 is at  -0.810713 -4.084341 -0.991754
      ESP Fit Center 2715 is at  -0.413298 -4.204896 -0.991754
      ESP Fit Center 2716 is at  -0.000000 -4.245602 -0.991754
      ESP Fit Center 2717 is at   0.413298 -4.204896 -0.991754
      ESP Fit Center 2718 is at   0.810713 -4.084341 -0.991754
      ESP Fit Center 2719 is at   1.176973 -3.888571 -0.991754
      ESP Fit Center 2720 is at   1.498003 -3.625109 -0.991754
      ESP Fit Center 2721 is at   1.761465 -3.304079 -0.991754
      ESP Fit Center 2722 is at   1.957235 -2.937819 -0.991754
      ESP Fit Center 2723 is at  -1.951972 -2.542010 -1.396955
      ESP Fit Center 2724 is at  -1.823053 -2.938781 -1.396955
      ESP Fit Center 2725 is at  -1.614458 -3.300078 -1.396955
      ESP Fit Center 2726 is at  -1.335304 -3.610111 -1.396955
      ESP Fit Center 2727 is at  -0.997790 -3.855329 -1.396955
      ESP Fit Center 2728 is at  -0.616668 -4.025015 -1.396955
      ESP Fit Center 2729 is at  -0.208595 -4.111754 -1.396955
      ESP Fit Center 2730 is at   0.208595 -4.111754 -1.396955
      ESP Fit Center 2731 is at   0.616668 -4.025015 -1.396955
      ESP Fit Center 2732 is at   0.997790 -3.855329 -1.396955
      ESP Fit Center 2733 is at   1.335304 -3.610111 -1.396955
      ESP Fit Center 2734 is at   1.614458 -3.300078 -1.396955
      ESP Fit Center 2735 is at   1.823053 -2.938781 -1.396955
      ESP Fit Center 2736 is at   1.951972 -2.542010 -1.396955
      ESP Fit Center 2737 is at  -1.687664 -2.741365 -1.770391
      ESP Fit Center 2738 is at  -1.500515 -3.114010 -1.770391
      ESP Fit Center 2739 is at  -1.232472 -3.433450 -1.770391
      ESP Fit Center 2740 is at  -0.897987 -3.682465 -1.770391
      ESP Fit Center 2741 is at  -0.515091 -3.847631 -1.770391
      ESP Fit Center 2742 is at  -0.104427 -3.920042 -1.770391
      ESP Fit Center 2743 is at   0.311868 -3.895795 -1.770391
      ESP Fit Center 2744 is at   0.711349 -3.776199 -1.770391
      ESP Fit Center 2745 is at   1.072482 -3.567699 -1.770391
      ESP Fit Center 2746 is at   1.375796 -3.281536 -1.770391
      ESP Fit Center 2747 is at   1.604941 -2.933138 -1.770391
      ESP Fit Center 2748 is at  -0.880793 -3.374905 -2.097710
      ESP Fit Center 2749 is at  -0.511479 -3.566269 -2.097710
      ESP Fit Center 2750 is at  -0.104230 -3.650896 -2.097710
      ESP Fit Center 2751 is at   0.310749 -3.622511 -2.097710
      ESP Fit Center 2752 is at   0.702681 -3.483218 -2.097710
      ESP Fit Center 2753 is at   0.919278  2.911755  3.679943
      ESP Fit Center 2754 is at   0.600016  3.179647  3.679943
      ESP Fit Center 2755 is at   0.208383  3.322190  3.679943
      ESP Fit Center 2756 is at  -0.208383  3.322190  3.679943
      ESP Fit Center 2757 is at  -0.600016  3.179647  3.679943
      ESP Fit Center 2758 is at  -0.919278  2.911755  3.679943
      ESP Fit Center 2759 is at   1.470712  2.552463  3.411320
      ESP Fit Center 2760 is at   1.304998  2.933976  3.411320
      ESP Fit Center 2761 is at   1.042498  3.256632  3.411320
      ESP Fit Center 2762 is at   0.702681  3.496501  3.411320
      ESP Fit Center 2763 is at   0.310749  3.635794  3.411320
      ESP Fit Center 2764 is at  -0.104230  3.664179  3.411320
      ESP Fit Center 2765 is at  -0.511479  3.579552  3.411320
      ESP Fit Center 2766 is at  -0.880793  3.388188  3.411320
      ESP Fit Center 2767 is at  -1.184783  3.104282  3.411320
      ESP Fit Center 2768 is at  -1.400903  2.748887  3.411320
      ESP Fit Center 2769 is at  -1.513125  2.348363  3.411320
      ESP Fit Center 2770 is at   1.747564  2.554569  3.084001
      ESP Fit Center 2771 is at   1.604941  2.946421  3.084001
      ESP Fit Center 2772 is at   1.375796  3.294819  3.084001
      ESP Fit Center 2773 is at   1.072482  3.580982  3.084001
      ESP Fit Center 2774 is at   0.711349  3.789482  3.084001
      ESP Fit Center 2775 is at   0.311868  3.909078  3.084001
      ESP Fit Center 2776 is at  -0.104427  3.933325  3.084001
      ESP Fit Center 2777 is at  -0.515091  3.860914  3.084001
      ESP Fit Center 2778 is at  -0.897987  3.695748  3.084001
      ESP Fit Center 2779 is at  -1.232472  3.446733  3.084001
      ESP Fit Center 2780 is at  -1.500515  3.127293  3.084001
      ESP Fit Center 2781 is at  -1.687664  2.754648  3.084001
      ESP Fit Center 2782 is at  -1.783831  2.348889  3.084001
      ESP Fit Center 2783 is at   1.951972  2.555293  2.710565
      ESP Fit Center 2784 is at   1.823053  2.952064  2.710565
      ESP Fit Center 2785 is at   1.614458  3.313361  2.710565
      ESP Fit Center 2786 is at   1.335304  3.623394  2.710565
      ESP Fit Center 2787 is at   0.997790  3.868612  2.710565
      ESP Fit Center 2788 is at   0.616668  4.038298  2.710565
      ESP Fit Center 2789 is at   0.208595  4.125037  2.710565
      ESP Fit Center 2790 is at  -0.208595  4.125037  2.710565
      ESP Fit Center 2791 is at  -0.616668  4.038298  2.710565
      ESP Fit Center 2792 is at  -0.997790  3.868612  2.710565
      ESP Fit Center 2793 is at  -1.335304  3.623394  2.710565
      ESP Fit Center 2794 is at  -1.614458  3.313361  2.710565
      ESP Fit Center 2795 is at  -1.823053  2.952064  2.710565
      ESP Fit Center 2796 is at  -1.951972  2.555293  2.710565
      ESP Fit Center 2797 is at   1.957235  2.951102  2.305364
      ESP Fit Center 2798 is at   1.761465  3.317362  2.305364
      ESP Fit Center 2799 is at   1.498003  3.638392  2.305364
      ESP Fit Center 2800 is at   1.176973  3.901854  2.305364
      ESP Fit Center 2801 is at   0.810713  4.097624  2.305364
      ESP Fit Center 2802 is at   0.413298  4.218179  2.305364
      ESP Fit Center 2803 is at   0.000000  4.258885  2.305364
      ESP Fit Center 2804 is at  -0.413298  4.218179  2.305364
      ESP Fit Center 2805 is at  -0.810713  4.097624  2.305364
      ESP Fit Center 2806 is at  -1.176973  3.901854  2.305364
      ESP Fit Center 2807 is at  -1.498003  3.638392  2.305364
      ESP Fit Center 2808 is at  -1.761465  3.317362  2.305364
      ESP Fit Center 2809 is at  -1.957235  2.951102  2.305364
      ESP Fit Center 2810 is at   2.005275  2.943180  1.883969
      ESP Fit Center 2811 is at   1.817108  3.308173  1.883969
      ESP Fit Center 2812 is at   1.563266  3.630960  1.883969
      ESP Fit Center 2813 is at   1.252923  3.899873  1.883969
      ESP Fit Center 2814 is at   0.897296  4.105194  1.883969
      ESP Fit Center 2815 is at   0.509239  4.239502  1.883969
      ESP Fit Center 2816 is at   0.102777  4.297942  1.883969
      ESP Fit Center 2817 is at  -0.307400  4.278403  1.883969
      ESP Fit Center 2818 is at  -0.706467  4.181591  1.883969
      ESP Fit Center 2819 is at  -1.080000  4.011004  1.883969
      ESP Fit Center 2820 is at  -1.414499  3.772808  1.883969
      ESP Fit Center 2821 is at  -1.697875  3.475612  1.883969
      ESP Fit Center 2822 is at  -1.919885  3.130158  1.883969
      ESP Fit Center 2823 is at   1.761465  3.317362  1.462574
      ESP Fit Center 2824 is at   1.498003  3.638392  1.462574
      ESP Fit Center 2825 is at   1.176973  3.901854  1.462574
      ESP Fit Center 2826 is at   0.810713  4.097624  1.462574
      ESP Fit Center 2827 is at   0.413298  4.218179  1.462574
      ESP Fit Center 2828 is at   0.000000  4.258885  1.462574
      ESP Fit Center 2829 is at  -0.413298  4.218179  1.462574
      ESP Fit Center 2830 is at  -0.810713  4.097624  1.462574
      ESP Fit Center 2831 is at  -1.176973  3.901854  1.462574
      ESP Fit Center 2832 is at  -1.498003  3.638392  1.462574
      ESP Fit Center 2833 is at  -1.761465  3.317362  1.462574
      ESP Fit Center 2834 is at   1.335304  3.623394  1.057373
      ESP Fit Center 2835 is at   0.997790  3.868612  1.057373
      ESP Fit Center 2836 is at   0.616668  4.038298  1.057373
      ESP Fit Center 2837 is at   0.208595  4.125037  1.057373
      ESP Fit Center 2838 is at  -0.208595  4.125037  1.057373
      ESP Fit Center 2839 is at  -0.616668  4.038298  1.057373
      ESP Fit Center 2840 is at  -0.997790  3.868612  1.057373
      ESP Fit Center 2841 is at  -1.335304  3.623394  1.057373
      ESP Fit Center 2842 is at   0.711349  3.789482  0.683937
      ESP Fit Center 2843 is at   0.311868  3.909078  0.683937
      ESP Fit Center 2844 is at  -0.104427  3.933325  0.683937
      ESP Fit Center 2845 is at  -0.515091  3.860914  0.683937
      ESP Fit Center 2846 is at  -0.897987  3.695748  0.683937
      ESP Fit Center 2847 is at  -0.919278 -2.911755  3.679943
      ESP Fit Center 2848 is at  -0.600016 -3.179647  3.679943
      ESP Fit Center 2849 is at  -0.208383 -3.322190  3.679943
      ESP Fit Center 2850 is at   0.208383 -3.322190  3.679943
      ESP Fit Center 2851 is at   0.600016 -3.179647  3.679943
      ESP Fit Center 2852 is at   0.919278 -2.911755  3.679943
      ESP Fit Center 2853 is at  -1.513125 -2.348363  3.411320
      ESP Fit Center 2854 is at  -1.400903 -2.748887  3.411320
      ESP Fit Center 2855 is at  -1.184783 -3.104282  3.411320
      ESP Fit Center 2856 is at  -0.880793 -3.388188  3.411320
      ESP Fit Center 2857 is at  -0.511479 -3.579552  3.411320
      ESP Fit Center 2858 is at  -0.104230 -3.664179  3.411320
      ESP Fit Center 2859 is at   0.310749 -3.635794  3.411320
      ESP Fit Center 2860 is at   0.702681 -3.496501  3.411320
      ESP Fit Center 2861 is at   1.042498 -3.256632  3.411320
      ESP Fit Center 2862 is at   1.304998 -2.933976  3.411320
      ESP Fit Center 2863 is at   1.470712 -2.552463  3.411320
      ESP Fit Center 2864 is at  -1.783831 -2.348889  3.084001
      ESP Fit Center 2865 is at  -1.687664 -2.754648  3.084001
      ESP Fit Center 2866 is at  -1.500515 -3.127293  3.084001
      ESP Fit Center 2867 is at  -1.232472 -3.446733  3.084001
      ESP Fit Center 2868 is at  -0.897987 -3.695748  3.084001
      ESP Fit Center 2869 is at  -0.515091 -3.860914  3.084001
      ESP Fit Center 2870 is at  -0.104427 -3.933325  3.084001
      ESP Fit Center 2871 is at   0.311868 -3.909078  3.084001
      ESP Fit Center 2872 is at   0.711349 -3.789482  3.084001
      ESP Fit Center 2873 is at   1.072482 -3.580982  3.084001
      ESP Fit Center 2874 is at   1.375796 -3.294819  3.084001
      ESP Fit Center 2875 is at   1.604941 -2.946421  3.084001
      ESP Fit Center 2876 is at   1.747564 -2.554569  3.084001
      ESP Fit Center 2877 is at  -1.951972 -2.555293  2.710565
      ESP Fit Center 2878 is at  -1.823053 -2.952064  2.710565
      ESP Fit Center 2879 is at  -1.614458 -3.313361  2.710565
      ESP Fit Center 2880 is at  -1.335304 -3.623394  2.710565
      ESP Fit Center 2881 is at  -0.997790 -3.868612  2.710565
      ESP Fit Center 2882 is at  -0.616668 -4.038298  2.710565
      ESP Fit Center 2883 is at  -0.208595 -4.125037  2.710565
      ESP Fit Center 2884 is at   0.208595 -4.125037  2.710565
      ESP Fit Center 2885 is at   0.616668 -4.038298  2.710565
      ESP Fit Center 2886 is at   0.997790 -3.868612  2.710565
      ESP Fit Center 2887 is at   1.335304 -3.623394  2.710565
      ESP Fit Center 2888 is at   1.614458 -3.313361  2.710565
      ESP Fit Center 2889 is at   1.823053 -2.952064  2.710565
      ESP Fit Center 2890 is at   1.951972 -2.555293  2.710565
      ESP Fit Center 2891 is at  -1.957235 -2.951102  2.305364
      ESP Fit Center 2892 is at  -1.761465 -3.317362  2.305364
      ESP Fit Center 2893 is at  -1.498003 -3.638392  2.305364
      ESP Fit Center 2894 is at  -1.176973 -3.901854  2.305364
      ESP Fit Center 2895 is at  -0.810713 -4.097624  2.305364
      ESP Fit Center 2896 is at  -0.413298 -4.218179  2.305364
      ESP Fit Center 2897 is at  -0.000000 -4.258885  2.305364
      ESP Fit Center 2898 is at   0.413298 -4.218179  2.305364
      ESP Fit Center 2899 is at   0.810713 -4.097624  2.305364
      ESP Fit Center 2900 is at   1.176973 -3.901854  2.305364
      ESP Fit Center 2901 is at   1.498003 -3.638392  2.305364
      ESP Fit Center 2902 is at   1.761465 -3.317362  2.305364
      ESP Fit Center 2903 is at   1.957235 -2.951102  2.305364
      ESP Fit Center 2904 is at  -1.919885 -3.130158  1.883969
      ESP Fit Center 2905 is at  -1.697875 -3.475612  1.883969
      ESP Fit Center 2906 is at  -1.414499 -3.772808  1.883969
      ESP Fit Center 2907 is at  -1.080000 -4.011004  1.883969
      ESP Fit Center 2908 is at  -0.706467 -4.181591  1.883969
      ESP Fit Center 2909 is at  -0.307400 -4.278403  1.883969
      ESP Fit Center 2910 is at   0.102777 -4.297942  1.883969
      ESP Fit Center 2911 is at   0.509239 -4.239502  1.883969
      ESP Fit Center 2912 is at   0.897296 -4.105194  1.883969
      ESP Fit Center 2913 is at   1.252923 -3.899873  1.883969
      ESP Fit Center 2914 is at   1.563266 -3.630960  1.883969
      ESP Fit Center 2915 is at   1.817108 -3.308173  1.883969
      ESP Fit Center 2916 is at   2.005275 -2.943180  1.883969
      ESP Fit Center 2917 is at  -1.761465 -3.317362  1.462574
      ESP Fit Center 2918 is at  -1.498003 -3.638392  1.462574
      ESP Fit Center 2919 is at  -1.176973 -3.901854  1.462574
      ESP Fit Center 2920 is at  -0.810713 -4.097624  1.462574
      ESP Fit Center 2921 is at  -0.413298 -4.218179  1.462574
      ESP Fit Center 2922 is at  -0.000000 -4.258885  1.462574
      ESP Fit Center 2923 is at   0.413298 -4.218179  1.462574
      ESP Fit Center 2924 is at   0.810713 -4.097624  1.462574
      ESP Fit Center 2925 is at   1.176973 -3.901854  1.462574
      ESP Fit Center 2926 is at   1.498003 -3.638392  1.462574
      ESP Fit Center 2927 is at   1.761465 -3.317362  1.462574
      ESP Fit Center 2928 is at  -1.335304 -3.623394  1.057373
      ESP Fit Center 2929 is at  -0.997790 -3.868612  1.057373
      ESP Fit Center 2930 is at  -0.616668 -4.038298  1.057373
      ESP Fit Center 2931 is at  -0.208595 -4.125037  1.057373
      ESP Fit Center 2932 is at   0.208595 -4.125037  1.057373
      ESP Fit Center 2933 is at   0.616668 -4.038298  1.057373
      ESP Fit Center 2934 is at   0.997790 -3.868612  1.057373
      ESP Fit Center 2935 is at   1.335304 -3.623394  1.057373
      ESP Fit Center 2936 is at  -0.897987 -3.695748  0.683937
      ESP Fit Center 2937 is at  -0.515091 -3.860914  0.683937
      ESP Fit Center 2938 is at  -0.104427 -3.933325  0.683937
      ESP Fit Center 2939 is at   0.311868 -3.909078  0.683937
      ESP Fit Center 2940 is at   0.711349 -3.789482  0.683937
      ESP Fit Center 2941 is at   2.666759  0.000000 -1.730771
      ESP Fit Center 2942 is at   2.633926  0.417173 -1.730771
      ESP Fit Center 2943 is at   2.536238  0.824074 -1.730771
      ESP Fit Center 2944 is at   2.376099  1.210683 -1.730771
      ESP Fit Center 2945 is at  -2.376099  1.210683 -1.730771
      ESP Fit Center 2946 is at  -2.536238  0.824074 -1.730771
      ESP Fit Center 2947 is at  -2.633926  0.417173 -1.730771
      ESP Fit Center 2948 is at  -2.666759  0.000000 -1.730771
      ESP Fit Center 2949 is at  -2.633926 -0.417173 -1.730771
      ESP Fit Center 2950 is at  -2.536238 -0.824074 -1.730771
      ESP Fit Center 2951 is at  -2.376099 -1.210683 -1.730771
      ESP Fit Center 2952 is at   2.376099 -1.210683 -1.730771
      ESP Fit Center 2953 is at   2.536238 -0.824074 -1.730771
      ESP Fit Center 2954 is at   2.633926 -0.417173 -1.730771
      ESP Fit Center 2955 is at   2.700000  0.000000 -2.153144
      ESP Fit Center 2956 is at   2.668357  0.412153 -2.153144
      ESP Fit Center 2957 is at   2.574170  0.814646 -2.153144
      ESP Fit Center 2958 is at  -2.504257  1.009306 -2.153144
      ESP Fit Center 2959 is at  -2.628978  0.615204 -2.153144
      ESP Fit Center 2960 is at  -2.692078  0.206683 -2.153144
      ESP Fit Center 2961 is at  -2.692078 -0.206683 -2.153144
      ESP Fit Center 2962 is at  -2.628978 -0.615204 -2.153144
      ESP Fit Center 2963 is at  -2.504257 -1.009306 -2.153144
      ESP Fit Center 2964 is at   2.574170 -0.814646 -2.153144
      ESP Fit Center 2965 is at   2.668357 -0.412153 -2.153144
      ESP Fit Center 2966 is at   2.666759  0.000000 -2.575517
      ESP Fit Center 2967 is at   2.633926  0.417173 -2.575517
      ESP Fit Center 2968 is at   2.536238  0.824074 -2.575517
      ESP Fit Center 2969 is at  -2.536238  0.824074 -2.575517
      ESP Fit Center 2970 is at  -2.633926  0.417173 -2.575517
      ESP Fit Center 2971 is at  -2.666759  0.000000 -2.575517
      ESP Fit Center 2972 is at  -2.633926 -0.417173 -2.575517
      ESP Fit Center 2973 is at  -2.536238 -0.824074 -2.575517
      ESP Fit Center 2974 is at   2.536238 -0.824074 -2.575517
      ESP Fit Center 2975 is at   2.633926 -0.417173 -2.575517
      ESP Fit Center 2976 is at   2.567853  0.000000 -2.987490
      ESP Fit Center 2977 is at   2.532830  0.422655 -2.987490
      ESP Fit Center 2978 is at  -2.532830  0.422655 -2.987490
      ESP Fit Center 2979 is at  -2.567853  0.000000 -2.987490
      ESP Fit Center 2980 is at  -2.532830 -0.422655 -2.987490
      ESP Fit Center 2981 is at   2.532830 -0.422655 -2.987490
      ESP Fit Center 2982 is at   2.405718  0.000000 -3.378918
      ESP Fit Center 2983 is at   2.369169  0.417748 -3.378918
      ESP Fit Center 2984 is at  -2.369169  0.417748 -3.378918
      ESP Fit Center 2985 is at  -2.405718  0.000000 -3.378918
      ESP Fit Center 2986 is at  -2.369169 -0.417748 -3.378918
      ESP Fit Center 2987 is at   2.369169 -0.417748 -3.378918
      ESP Fit Center 2988 is at   2.184346  0.000000 -3.740164
      ESP Fit Center 2989 is at  -2.174455  0.207635 -3.740164
      ESP Fit Center 2990 is at  -2.174455 -0.207635 -3.740164
      ESP Fit Center 2991 is at   1.909188  0.000000 -4.062332
      ESP Fit Center 2992 is at  -1.909188  0.000000 -4.062332
      ESP Fit Center 2993 is at   0.000000 -0.000000  6.122806
      ESP Fit Center 2994 is at   0.422373 -0.000000  6.089565
      ESP Fit Center 2995 is at   0.211187  0.365786  6.089565
      ESP Fit Center 2996 is at  -0.211187  0.365786  6.089565
      ESP Fit Center 2997 is at  -0.422373  0.000000  6.089565
      ESP Fit Center 2998 is at  -0.211187 -0.365786  6.089565
      ESP Fit Center 2999 is at   0.211187 -0.365786  6.089565
      ESP Fit Center 3000 is at   0.834346 -0.000000  5.990659
      ESP Fit Center 3001 is at   0.722565  0.417173  5.990659
      ESP Fit Center 3002 is at  -0.722565  0.417173  5.990659
      ESP Fit Center 3003 is at  -0.834346  0.000000  5.990659
      ESP Fit Center 3004 is at  -0.722565 -0.417173  5.990659
      ESP Fit Center 3005 is at   0.722565 -0.417173  5.990659
      ESP Fit Center 3006 is at   1.225774 -0.000000  5.828524
      ESP Fit Center 3007 is at   1.151851  0.419240  5.828524
      ESP Fit Center 3008 is at  -1.151851  0.419240  5.828524
      ESP Fit Center 3009 is at  -1.225774  0.000000  5.828524
      ESP Fit Center 3010 is at  -1.151851 -0.419240  5.828524
      ESP Fit Center 3011 is at   1.151851 -0.419240  5.828524
      ESP Fit Center 3012 is at   1.587020 -0.000000  5.607152
      ESP Fit Center 3013 is at   1.532944  0.410751  5.607152
      ESP Fit Center 3014 is at   1.374400  0.793510  5.607152
      ESP Fit Center 3015 is at  -1.374400  0.793510  5.607152
      ESP Fit Center 3016 is at  -1.532944  0.410751  5.607152
      ESP Fit Center 3017 is at  -1.587020  0.000000  5.607152
      ESP Fit Center 3018 is at  -1.532944 -0.410751  5.607152
      ESP Fit Center 3019 is at  -1.374400 -0.793510  5.607152
      ESP Fit Center 3020 is at   1.374400 -0.793510  5.607152
      ESP Fit Center 3021 is at   1.532944 -0.410751  5.607152
      ESP Fit Center 3022 is at   1.909188 -0.000000  5.331994
      ESP Fit Center 3023 is at   1.861321  0.424834  5.331994
      ESP Fit Center 3024 is at   1.720119  0.828366  5.331994
      ESP Fit Center 3025 is at  -1.720119  0.828366  5.331994
      ESP Fit Center 3026 is at  -1.861321  0.424834  5.331994
      ESP Fit Center 3027 is at  -1.909188  0.000000  5.331994
      ESP Fit Center 3028 is at  -1.861321 -0.424834  5.331994
      ESP Fit Center 3029 is at  -1.720119 -0.828366  5.331994
      ESP Fit Center 3030 is at   1.720119 -0.828366  5.331994
      ESP Fit Center 3031 is at   1.861321 -0.424834  5.331994
      ESP Fit Center 3032 is at   2.184346 -0.000000  5.009826
      ESP Fit Center 3033 is at   2.144872  0.413390  5.009826
      ESP Fit Center 3034 is at   2.027877  0.811839  5.009826
      ESP Fit Center 3035 is at  -1.941524  1.000925  5.009826
      ESP Fit Center 3036 is at  -2.095865  0.615401  5.009826
      ESP Fit Center 3037 is at  -2.174455  0.207635  5.009826
      ESP Fit Center 3038 is at  -2.174455 -0.207635  5.009826
      ESP Fit Center 3039 is at  -2.095865 -0.615401  5.009826
      ESP Fit Center 3040 is at  -1.941524 -1.000925  5.009826
      ESP Fit Center 3041 is at   2.027877 -0.811839  5.009826
      ESP Fit Center 3042 is at   2.144872 -0.413390  5.009826
      ESP Fit Center 3043 is at   2.405718 -0.000000  4.648580
      ESP Fit Center 3044 is at   2.369169  0.417748  4.648580
      ESP Fit Center 3045 is at   2.260635  0.822804  4.648580
      ESP Fit Center 3046 is at   2.083413  1.202859  4.648580
      ESP Fit Center 3047 is at  -2.083413  1.202859  4.648580
      ESP Fit Center 3048 is at  -2.260635  0.822804  4.648580
      ESP Fit Center 3049 is at  -2.369169  0.417748  4.648580
      ESP Fit Center 3050 is at  -2.405718  0.000000  4.648580
      ESP Fit Center 3051 is at  -2.369169 -0.417748  4.648580
      ESP Fit Center 3052 is at  -2.260635 -0.822804  4.648580
      ESP Fit Center 3053 is at  -2.083413 -1.202859  4.648580
      ESP Fit Center 3054 is at   2.083413 -1.202859  4.648580
      ESP Fit Center 3055 is at   2.260635 -0.822804  4.648580
      ESP Fit Center 3056 is at   2.369169 -0.417748  4.648580
      ESP Fit Center 3057 is at   2.567853 -0.000000  4.257152
      ESP Fit Center 3058 is at   2.532830  0.422655  4.257152
      ESP Fit Center 3059 is at   2.428719  0.833780  4.257152
      ESP Fit Center 3060 is at   2.258359  1.222163  4.257152
      ESP Fit Center 3061 is at   2.026397  1.577208  4.257152
      ESP Fit Center 3062 is at  -2.026397  1.577208  4.257152
      ESP Fit Center 3063 is at  -2.258359  1.222163  4.257152
      ESP Fit Center 3064 is at  -2.428719  0.833780  4.257152
      ESP Fit Center 3065 is at  -2.532830  0.422655  4.257152
      ESP Fit Center 3066 is at  -2.567853  0.000000  4.257152
      ESP Fit Center 3067 is at  -2.532830 -0.422655  4.257152
      ESP Fit Center 3068 is at  -2.428719 -0.833780  4.257152
      ESP Fit Center 3069 is at  -2.258359 -1.222163  4.257152
      ESP Fit Center 3070 is at  -2.026397 -1.577208  4.257152
      ESP Fit Center 3071 is at   2.026397 -1.577208  4.257152
      ESP Fit Center 3072 is at   2.258359 -1.222163  4.257152
      ESP Fit Center 3073 is at   2.428719 -0.833780  4.257152
      ESP Fit Center 3074 is at   2.532830 -0.422655  4.257152
      ESP Fit Center 3075 is at   2.666759 -0.000000  3.845179
      ESP Fit Center 3076 is at   2.633926  0.417173  3.845179
      ESP Fit Center 3077 is at   2.536238  0.824074  3.845179
      ESP Fit Center 3078 is at   2.376099  1.210683  3.845179
      ESP Fit Center 3079 is at   2.157453  1.567481  3.845179
      ESP Fit Center 3080 is at  -2.157453  1.567481  3.845179
      ESP Fit Center 3081 is at  -2.376099  1.210683  3.845179
      ESP Fit Center 3082 is at  -2.536238  0.824074  3.845179
      ESP Fit Center 3083 is at  -2.633926  0.417173  3.845179
      ESP Fit Center 3084 is at  -2.666759  0.000000  3.845179
      ESP Fit Center 3085 is at  -2.633926 -0.417173  3.845179
      ESP Fit Center 3086 is at  -2.536238 -0.824074  3.845179
      ESP Fit Center 3087 is at  -2.376099 -1.210683  3.845179
      ESP Fit Center 3088 is at  -2.157453 -1.567481  3.845179
      ESP Fit Center 3089 is at   2.157453 -1.567481  3.845179
      ESP Fit Center 3090 is at   2.376099 -1.210683  3.845179
      ESP Fit Center 3091 is at   2.536238 -0.824074  3.845179
      ESP Fit Center 3092 is at   2.633926 -0.417173  3.845179
      ESP Fit Center 3093 is at   2.700000 -0.000000  3.422806
      ESP Fit Center 3094 is at   2.668357  0.412153  3.422806
      ESP Fit Center 3095 is at   2.574170  0.814646  3.422806
      ESP Fit Center 3096 is at   2.419647  1.198044  3.422806
      ESP Fit Center 3097 is at   2.208409  1.553360  3.422806
      ESP Fit Center 3098 is at   1.945408  1.872268  3.422806
      ESP Fit Center 3099 is at  -1.796379  2.015694  3.422806
      ESP Fit Center 3100 is at  -2.083021  1.717855  3.422806
      ESP Fit Center 3101 is at  -2.320838  1.379750  3.422806
      ESP Fit Center 3102 is at  -2.504257  1.009306  3.422806
      ESP Fit Center 3103 is at  -2.628978  0.615204  3.422806
      ESP Fit Center 3104 is at  -2.692078  0.206683  3.422806
      ESP Fit Center 3105 is at  -2.692078 -0.206683  3.422806
      ESP Fit Center 3106 is at  -2.628978 -0.615204  3.422806
      ESP Fit Center 3107 is at  -2.504257 -1.009306  3.422806
      ESP Fit Center 3108 is at  -2.320838 -1.379750  3.422806
      ESP Fit Center 3109 is at  -2.083021 -1.717855  3.422806
      ESP Fit Center 3110 is at  -1.796379 -2.015694  3.422806
      ESP Fit Center 3111 is at   1.945408 -1.872268  3.422806
      ESP Fit Center 3112 is at   2.208409 -1.553360  3.422806
      ESP Fit Center 3113 is at   2.419647 -1.198044  3.422806
      ESP Fit Center 3114 is at   2.574170 -0.814646  3.422806
      ESP Fit Center 3115 is at   2.668357 -0.412153  3.422806
      ESP Fit Center 3116 is at   2.666759 -0.000000  3.000433
      ESP Fit Center 3117 is at   2.633926  0.417173  3.000433
      ESP Fit Center 3118 is at   2.536238  0.824074  3.000433
      ESP Fit Center 3119 is at   2.376099  1.210683  3.000433
      ESP Fit Center 3120 is at   2.157453  1.567481  3.000433
      ESP Fit Center 3121 is at  -2.157453  1.567481  3.000433
      ESP Fit Center 3122 is at  -2.376099  1.210683  3.000433
      ESP Fit Center 3123 is at  -2.536238  0.824074  3.000433
      ESP Fit Center 3124 is at  -2.633926  0.417173  3.000433
      ESP Fit Center 3125 is at  -2.666759  0.000000  3.000433
      ESP Fit Center 3126 is at  -2.633926 -0.417173  3.000433
      ESP Fit Center 3127 is at  -2.536238 -0.824074  3.000433
      ESP Fit Center 3128 is at  -2.376099 -1.210683  3.000433
      ESP Fit Center 3129 is at  -2.157453 -1.567481  3.000433
      ESP Fit Center 3130 is at   2.157453 -1.567481  3.000433
      ESP Fit Center 3131 is at   2.376099 -1.210683  3.000433
      ESP Fit Center 3132 is at   2.536238 -0.824074  3.000433
      ESP Fit Center 3133 is at   2.633926 -0.417173  3.000433
      ESP Fit Center 3134 is at  -0.000000  0.848501  6.096990
      ESP Fit Center 3135 is at   0.421395  0.848501  6.055486
      ESP Fit Center 3136 is at   0.210698  1.213440  6.055486
      ESP Fit Center 3137 is at  -0.210698  1.213440  6.055486
      ESP Fit Center 3138 is at  -0.421395  0.848501  6.055486
      ESP Fit Center 3139 is at   0.826596  0.848501  5.932570
      ESP Fit Center 3140 is at   0.715853  1.261799  5.932570
      ESP Fit Center 3141 is at   0.413298  1.564354  5.932570
      ESP Fit Center 3142 is at   0.000000  1.675097  5.932570
      ESP Fit Center 3143 is at  -0.413298  1.564354  5.932570
      ESP Fit Center 3144 is at  -0.715853  1.261799  5.932570
      ESP Fit Center 3145 is at  -0.826596  0.848501  5.932570
      ESP Fit Center 3146 is at   1.200032  0.848501  5.732964
      ESP Fit Center 3147 is at   1.127661  1.258936  5.732964
      ESP Fit Center 3148 is at   0.919278  1.619867  5.732964
      ESP Fit Center 3149 is at   0.600016  1.887759  5.732964
      ESP Fit Center 3150 is at   0.208383  2.030302  5.732964
      ESP Fit Center 3151 is at  -0.208383  2.030302  5.732964
      ESP Fit Center 3152 is at  -0.600016  1.887759  5.732964
      ESP Fit Center 3153 is at  -0.919278  1.619867  5.732964
      ESP Fit Center 3154 is at  -1.127661  1.258936  5.732964
      ESP Fit Center 3155 is at  -1.200032  0.848501  5.732964
      ESP Fit Center 3156 is at   1.470712  1.260575  5.464341
      ESP Fit Center 3157 is at   1.304998  1.642088  5.464341
      ESP Fit Center 3158 is at   1.042498  1.964744  5.464341
      ESP Fit Center 3159 is at   0.702681  2.204613  5.464341
      ESP Fit Center 3160 is at   0.310749  2.343906  5.464341
      ESP Fit Center 3161 is at  -0.104230  2.372291  5.464341
      ESP Fit Center 3162 is at  -0.511479  2.287664  5.464341
      ESP Fit Center 3163 is at  -0.880793  2.096300  5.464341
      ESP Fit Center 3164 is at  -1.184783  1.812394  5.464341
      ESP Fit Center 3165 is at  -1.400903  1.456999  5.464341
      ESP Fit Center 3166 is at  -1.513125  1.056475  5.464341
      ESP Fit Center 3167 is at   1.747564  1.262681  5.137022
      ESP Fit Center 3168 is at   1.604941  1.654533  5.137022
      ESP Fit Center 3169 is at   1.375796  2.002931  5.137022
      ESP Fit Center 3170 is at   1.072482  2.289094  5.137022
      ESP Fit Center 3171 is at   0.711349  2.497594  5.137022
      ESP Fit Center 3172 is at   0.311868  2.617190  5.137022
      ESP Fit Center 3173 is at  -0.104427  2.641437  5.137022
      ESP Fit Center 3174 is at  -0.515091  2.569026  5.137022
      ESP Fit Center 3175 is at  -0.897987  2.403860  5.137022
      ESP Fit Center 3176 is at  -1.232472  2.154845  5.137022
      ESP Fit Center 3177 is at  -1.500515  1.835405  5.137022
      ESP Fit Center 3178 is at  -1.687664  1.462760  5.137022
      ESP Fit Center 3179 is at   1.823053  1.660176  4.763586
      ESP Fit Center 3180 is at   1.614458  2.021473  4.763586
      ESP Fit Center 3181 is at   1.335304  2.331506  4.763586
      ESP Fit Center 3182 is at   0.997790  2.576724  4.763586
      ESP Fit Center 3183 is at   0.616668  2.746410  4.763586
      ESP Fit Center 3184 is at   0.208595  2.833149  4.763586
      ESP Fit Center 3185 is at  -0.208595  2.833149  4.763586
      ESP Fit Center 3186 is at  -0.616668  2.746410  4.763586
      ESP Fit Center 3187 is at  -0.997790  2.576724  4.763586
      ESP Fit Center 3188 is at  -1.335304  2.331506  4.763586
      ESP Fit Center 3189 is at  -1.614458  2.021473  4.763586
      ESP Fit Center 3190 is at  -1.823053  1.660176  4.763586
      ESP Fit Center 3191 is at   1.957235  1.659214  4.358385
      ESP Fit Center 3192 is at   1.761465  2.025474  4.358385
      ESP Fit Center 3193 is at   1.498003  2.346504  4.358385
      ESP Fit Center 3194 is at   1.176973  2.609966  4.358385
      ESP Fit Center 3195 is at   0.810713  2.805736  4.358385
      ESP Fit Center 3196 is at   0.413298  2.926291  4.358385
      ESP Fit Center 3197 is at   0.000000  2.966997  4.358385
      ESP Fit Center 3198 is at  -0.413298  2.926291  4.358385
      ESP Fit Center 3199 is at  -0.810713  2.805736  4.358385
      ESP Fit Center 3200 is at  -1.176973  2.609966  4.358385
      ESP Fit Center 3201 is at  -1.498003  2.346504  4.358385
      ESP Fit Center 3202 is at  -1.761465  2.025474  4.358385
      ESP Fit Center 3203 is at  -1.957235  1.659214  4.358385
      ESP Fit Center 3204 is at   1.817108  2.016285  3.936990
      ESP Fit Center 3205 is at   1.563266  2.339072  3.936990
      ESP Fit Center 3206 is at   1.252923  2.607985  3.936990
      ESP Fit Center 3207 is at   0.897296  2.813306  3.936990
      ESP Fit Center 3208 is at   0.509239  2.947614  3.936990
      ESP Fit Center 3209 is at   0.102777  3.006054  3.936990
      ESP Fit Center 3210 is at  -0.307400  2.986515  3.936990
      ESP Fit Center 3211 is at  -0.706467  2.889703  3.936990
      ESP Fit Center 3212 is at  -1.080000  2.719116  3.936990
      ESP Fit Center 3213 is at  -1.414499  2.480920  3.936990
      ESP Fit Center 3214 is at  -1.697875  2.183724  3.936990
      ESP Fit Center 3215 is at  -1.919885  1.838270  3.936990
      ESP Fit Center 3216 is at   1.498003  2.346504  3.515595
      ESP Fit Center 3217 is at  -1.498003  2.346504  3.515595
      ESP Fit Center 3218 is at  -0.000000 -0.848501  6.096990
      ESP Fit Center 3219 is at   0.421395 -0.848501  6.055486
      ESP Fit Center 3220 is at  -0.421395 -0.848501  6.055486
      ESP Fit Center 3221 is at  -0.210698 -1.213440  6.055486
      ESP Fit Center 3222 is at   0.210698 -1.213440  6.055486
      ESP Fit Center 3223 is at   0.826596 -0.848501  5.932570
      ESP Fit Center 3224 is at  -0.826596 -0.848501  5.932570
      ESP Fit Center 3225 is at  -0.715853 -1.261799  5.932570
      ESP Fit Center 3226 is at  -0.413298 -1.564354  5.932570
      ESP Fit Center 3227 is at  -0.000000 -1.675097  5.932570
      ESP Fit Center 3228 is at   0.413298 -1.564354  5.932570
      ESP Fit Center 3229 is at   0.715853 -1.261799  5.932570
      ESP Fit Center 3230 is at   1.200032 -0.848501  5.732964
      ESP Fit Center 3231 is at  -1.200032 -0.848501  5.732964
      ESP Fit Center 3232 is at  -1.127661 -1.258936  5.732964
      ESP Fit Center 3233 is at  -0.919278 -1.619867  5.732964
      ESP Fit Center 3234 is at  -0.600016 -1.887759  5.732964
      ESP Fit Center 3235 is at  -0.208383 -2.030302  5.732964
      ESP Fit Center 3236 is at   0.208383 -2.030302  5.732964
      ESP Fit Center 3237 is at   0.600016 -1.887759  5.732964
      ESP Fit Center 3238 is at   0.919278 -1.619867  5.732964
      ESP Fit Center 3239 is at   1.127661 -1.258936  5.732964
      ESP Fit Center 3240 is at  -1.513125 -1.056475  5.464341
      ESP Fit Center 3241 is at  -1.400903 -1.456999  5.464341
      ESP Fit Center 3242 is at  -1.184783 -1.812394  5.464341
      ESP Fit Center 3243 is at  -0.880793 -2.096300  5.464341
      ESP Fit Center 3244 is at  -0.511479 -2.287664  5.464341
      ESP Fit Center 3245 is at  -0.104230 -2.372291  5.464341
      ESP Fit Center 3246 is at   0.310749 -2.343906  5.464341
      ESP Fit Center 3247 is at   0.702681 -2.204613  5.464341
      ESP Fit Center 3248 is at   1.042498 -1.964744  5.464341
      ESP Fit Center 3249 is at   1.304998 -1.642088  5.464341
      ESP Fit Center 3250 is at   1.470712 -1.260575  5.464341
      ESP Fit Center 3251 is at  -1.687664 -1.462760  5.137022
      ESP Fit Center 3252 is at  -1.500515 -1.835405  5.137022
      ESP Fit Center 3253 is at  -1.232472 -2.154845  5.137022
      ESP Fit Center 3254 is at  -0.897987 -2.403860  5.137022
      ESP Fit Center 3255 is at  -0.515091 -2.569026  5.137022
      ESP Fit Center 3256 is at  -0.104427 -2.641437  5.137022
      ESP Fit Center 3257 is at   0.311868 -2.617190  5.137022
      ESP Fit Center 3258 is at   0.711349 -2.497594  5.137022
      ESP Fit Center 3259 is at   1.072482 -2.289094  5.137022
      ESP Fit Center 3260 is at   1.375796 -2.002931  5.137022
      ESP Fit Center 3261 is at   1.604941 -1.654533  5.137022
      ESP Fit Center 3262 is at   1.747564 -1.262681  5.137022
      ESP Fit Center 3263 is at  -1.823053 -1.660176  4.763586
      ESP Fit Center 3264 is at  -1.614458 -2.021473  4.763586
      ESP Fit Center 3265 is at  -1.335304 -2.331506  4.763586
      ESP Fit Center 3266 is at  -0.997790 -2.576724  4.763586
      ESP Fit Center 3267 is at  -0.616668 -2.746410  4.763586
      ESP Fit Center 3268 is at  -0.208595 -2.833149  4.763586
      ESP Fit Center 3269 is at   0.208595 -2.833149  4.763586
      ESP Fit Center 3270 is at   0.616668 -2.746410  4.763586
      ESP Fit Center 3271 is at   0.997790 -2.576724  4.763586
      ESP Fit Center 3272 is at   1.335304 -2.331506  4.763586
      ESP Fit Center 3273 is at   1.614458 -2.021473  4.763586
      ESP Fit Center 3274 is at   1.823053 -1.660176  4.763586
      ESP Fit Center 3275 is at  -1.957235 -1.659214  4.358385
      ESP Fit Center 3276 is at  -1.761465 -2.025474  4.358385
      ESP Fit Center 3277 is at  -1.498003 -2.346504  4.358385
      ESP Fit Center 3278 is at  -1.176973 -2.609966  4.358385
      ESP Fit Center 3279 is at  -0.810713 -2.805736  4.358385
      ESP Fit Center 3280 is at  -0.413298 -2.926291  4.358385
      ESP Fit Center 3281 is at  -0.000000 -2.966997  4.358385
      ESP Fit Center 3282 is at   0.413298 -2.926291  4.358385
      ESP Fit Center 3283 is at   0.810713 -2.805736  4.358385
      ESP Fit Center 3284 is at   1.176973 -2.609966  4.358385
      ESP Fit Center 3285 is at   1.498003 -2.346504  4.358385
      ESP Fit Center 3286 is at   1.761465 -2.025474  4.358385
      ESP Fit Center 3287 is at   1.957235 -1.659214  4.358385
      ESP Fit Center 3288 is at  -1.919885 -1.838270  3.936990
      ESP Fit Center 3289 is at  -1.697875 -2.183724  3.936990
      ESP Fit Center 3290 is at  -1.414499 -2.480920  3.936990
      ESP Fit Center 3291 is at  -1.080000 -2.719116  3.936990
      ESP Fit Center 3292 is at  -0.706467 -2.889703  3.936990
      ESP Fit Center 3293 is at  -0.307400 -2.986515  3.936990
      ESP Fit Center 3294 is at   0.102777 -3.006054  3.936990
      ESP Fit Center 3295 is at   0.509239 -2.947614  3.936990
      ESP Fit Center 3296 is at   0.897296 -2.813306  3.936990
      ESP Fit Center 3297 is at   1.252923 -2.607985  3.936990
      ESP Fit Center 3298 is at   1.563266 -2.339072  3.936990
      ESP Fit Center 3299 is at   1.817108 -2.016285  3.936990
      ESP Fit Center 3300 is at  -1.498003 -2.346504  3.515595
      ESP Fit Center 3301 is at   1.498003 -2.346504  3.515595
      ESP Fit Center 3302 is at   2.268455  1.481435 -1.701404
      ESP Fit Center 3303 is at   2.151912  1.891042 -1.701404
      ESP Fit Center 3304 is at   1.962088  2.272260 -1.701404
      ESP Fit Center 3305 is at  -1.962088  2.272260 -1.701404
      ESP Fit Center 3306 is at  -2.151912  1.891042 -1.701404
      ESP Fit Center 3307 is at  -2.268455  1.481435 -1.701404
      ESP Fit Center 3308 is at   2.405776  1.481590 -2.095054
      ESP Fit Center 3309 is at   2.295564  1.892904 -2.095054
      ESP Fit Center 3310 is at   2.115604  2.278831 -2.095054
      ESP Fit Center 3311 is at   1.871361  2.627646 -2.095054
      ESP Fit Center 3312 is at   1.570259  2.928748 -2.095054
      ESP Fit Center 3313 is at   1.221444  3.172991 -2.095054
      ESP Fit Center 3314 is at  -1.221444  3.172991 -2.095054
      ESP Fit Center 3315 is at  -1.570259  2.928748 -2.095054
      ESP Fit Center 3316 is at  -1.871361  2.627646 -2.095054
      ESP Fit Center 3317 is at  -2.115604  2.278831 -2.095054
      ESP Fit Center 3318 is at  -2.295564  1.892904 -2.095054
      ESP Fit Center 3319 is at  -2.405776  1.481590 -2.095054
      ESP Fit Center 3320 is at   2.511393  1.057387 -2.505577
      ESP Fit Center 3321 is at   2.475269  1.481814 -2.505577
      ESP Fit Center 3322 is at   2.367936  1.894032 -2.505577
      ESP Fit Center 3323 is at   2.192481  2.282181 -2.505577
      ESP Fit Center 3324 is at   1.953953  2.635094 -2.505577
      ESP Fit Center 3325 is at   1.659214  2.942620 -2.505577
      ESP Fit Center 3326 is at   1.316742  3.195911 -2.505577
      ESP Fit Center 3327 is at   0.936389  3.387681 -2.505577
      ESP Fit Center 3328 is at   0.529098  3.512412 -2.505577
      ESP Fit Center 3329 is at   0.106587  3.566517 -2.505577
      ESP Fit Center 3330 is at  -0.318992  3.548439 -2.505577
      ESP Fit Center 3331 is at  -0.735393  3.458697 -2.505577
      ESP Fit Center 3332 is at  -1.130638  3.299875 -2.505577
      ESP Fit Center 3333 is at  -1.493358  3.076540 -2.505577
      ESP Fit Center 3334 is at  -1.813115  2.795117 -2.505577
      ESP Fit Center 3335 is at  -2.080713  2.463704 -2.505577
      ESP Fit Center 3336 is at  -2.288453  2.091833 -2.505577
      ESP Fit Center 3337 is at  -2.430358  1.690203 -2.505577
      ESP Fit Center 3338 is at  -2.502346  1.270368 -2.505577
      ESP Fit Center 3339 is at   2.511393  1.057387 -2.921777
      ESP Fit Center 3340 is at   2.475269  1.481814 -2.921777
      ESP Fit Center 3341 is at   2.367936  1.894032 -2.921777
      ESP Fit Center 3342 is at   2.192481  2.282181 -2.921777
      ESP Fit Center 3343 is at   1.953953  2.635094 -2.921777
      ESP Fit Center 3344 is at   1.659214  2.942620 -2.921777
      ESP Fit Center 3345 is at   1.316742  3.195911 -2.921777
      ESP Fit Center 3346 is at   0.936389  3.387681 -2.921777
      ESP Fit Center 3347 is at   0.529098  3.512412 -2.921777
      ESP Fit Center 3348 is at   0.106587  3.566517 -2.921777
      ESP Fit Center 3349 is at  -0.318992  3.548439 -2.921777
      ESP Fit Center 3350 is at  -0.735393  3.458697 -2.921777
      ESP Fit Center 3351 is at  -1.130638  3.299875 -2.921777
      ESP Fit Center 3352 is at  -1.493358  3.076540 -2.921777
      ESP Fit Center 3353 is at  -1.813115  2.795117 -2.921777
      ESP Fit Center 3354 is at  -2.080713  2.463704 -2.921777
      ESP Fit Center 3355 is at  -2.288453  2.091833 -2.921777
      ESP Fit Center 3356 is at  -2.430358  1.690203 -2.921777
      ESP Fit Center 3357 is at  -2.502346  1.270368 -2.921777
      ESP Fit Center 3358 is at  -2.502346  0.844406 -2.921777
      ESP Fit Center 3359 is at   2.442889  1.057387 -3.332300
      ESP Fit Center 3360 is at   2.405776  1.481590 -3.332300
      ESP Fit Center 3361 is at   2.295564  1.892904 -3.332300
      ESP Fit Center 3362 is at   2.115604  2.278831 -3.332300
      ESP Fit Center 3363 is at   1.871361  2.627646 -3.332300
      ESP Fit Center 3364 is at   1.570259  2.928748 -3.332300
      ESP Fit Center 3365 is at   1.221444  3.172991 -3.332300
      ESP Fit Center 3366 is at   0.835517  3.352951 -3.332300
      ESP Fit Center 3367 is at   0.424203  3.463163 -3.332300
      ESP Fit Center 3368 is at   0.000000  3.500276 -3.332300
      ESP Fit Center 3369 is at  -0.424203  3.463163 -3.332300
      ESP Fit Center 3370 is at  -0.835517  3.352951 -3.332300
      ESP Fit Center 3371 is at  -1.221444  3.172991 -3.332300
      ESP Fit Center 3372 is at  -1.570259  2.928748 -3.332300
      ESP Fit Center 3373 is at  -1.871361  2.627646 -3.332300
      ESP Fit Center 3374 is at  -2.115604  2.278831 -3.332300
      ESP Fit Center 3375 is at  -2.295564  1.892904 -3.332300
      ESP Fit Center 3376 is at  -2.405776  1.481590 -3.332300
      ESP Fit Center 3377 is at  -2.442889  1.057387 -3.332300
      ESP Fit Center 3378 is at  -2.405776  0.633184 -3.332300
      ESP Fit Center 3379 is at   2.405776  0.633184 -3.332300
      ESP Fit Center 3380 is at   2.307749  1.057387 -3.725949
      ESP Fit Center 3381 is at   2.268455  1.481435 -3.725949
      ESP Fit Center 3382 is at   2.151912  1.891042 -3.725949
      ESP Fit Center 3383 is at   1.962088  2.272260 -3.725949
      ESP Fit Center 3384 is at   1.705447  2.612107 -3.725949
      ESP Fit Center 3385 is at   1.390729  2.899010 -3.725949
      ESP Fit Center 3386 is at   1.028652  3.123199 -3.725949
      ESP Fit Center 3387 is at   0.631545  3.277039 -3.725949
      ESP Fit Center 3388 is at   0.212932  3.355291 -3.725949
      ESP Fit Center 3389 is at  -0.212932  3.355291 -3.725949
      ESP Fit Center 3390 is at  -0.631545  3.277039 -3.725949
      ESP Fit Center 3391 is at  -1.028652  3.123199 -3.725949
      ESP Fit Center 3392 is at  -1.390729  2.899010 -3.725949
      ESP Fit Center 3393 is at  -1.705447  2.612107 -3.725949
      ESP Fit Center 3394 is at  -1.962088  2.272260 -3.725949
      ESP Fit Center 3395 is at  -2.151912  1.891042 -3.725949
      ESP Fit Center 3396 is at  -2.268455  1.481435 -3.725949
      ESP Fit Center 3397 is at  -2.307749  1.057387 -3.725949
      ESP Fit Center 3398 is at  -2.268455  0.633339 -3.725949
      ESP Fit Center 3399 is at   2.268455  0.633339 -3.725949
      ESP Fit Center 3400 is at   2.109660  1.057387 -4.091986
      ESP Fit Center 3401 is at   2.066475  1.482058 -4.091986
      ESP Fit Center 3402 is at   1.938688  1.889344 -4.091986
      ESP Fit Center 3403 is at   1.731531  2.262568 -4.091986
      ESP Fit Center 3404 is at   1.453486  2.586453 -4.091986
      ESP Fit Center 3405 is at   1.115934  2.847737 -4.091986
      ESP Fit Center 3406 is at   0.732696  3.035725 -4.091986
      ESP Fit Center 3407 is at   0.319461  3.142719 -4.091986
      ESP Fit Center 3408 is at  -0.106853  3.164339 -4.091986
      ESP Fit Center 3409 is at  -0.528792  3.099700 -4.091986
      ESP Fit Center 3410 is at  -0.929082  2.951449 -4.091986
      ESP Fit Center 3411 is at  -1.291335  2.725655 -4.091986
      ESP Fit Center 3412 is at  -1.600721  2.431561 -4.091986
      ESP Fit Center 3413 is at  -1.844574  2.081209 -4.091986
      ESP Fit Center 3414 is at  -2.012909  1.688941 -4.091986
      ESP Fit Center 3415 is at  -2.098836  1.270818 -4.091986
      ESP Fit Center 3416 is at  -2.098836  0.843956 -4.091986
      ESP Fit Center 3417 is at  -2.012909  0.425833 -4.091986
      ESP Fit Center 3418 is at   1.938688  0.225430 -4.091986
      ESP Fit Center 3419 is at   2.066475  0.632716 -4.091986
      ESP Fit Center 3420 is at   1.854024  1.057387 -4.420427
      ESP Fit Center 3421 is at   1.804049  1.484954 -4.420427
      ESP Fit Center 3422 is at   1.656817  1.889472 -4.420427
      ESP Fit Center 3423 is at   1.420265  2.249131 -4.420427
      ESP Fit Center 3424 is at   1.107147  2.544543 -4.420427
      ESP Fit Center 3425 is at   0.734341  2.759782 -4.420427
      ESP Fit Center 3426 is at   0.321948  2.883244 -4.420427
      ESP Fit Center 3427 is at  -0.107802  2.908275 -4.420427
      ESP Fit Center 3428 is at  -0.531740  2.833523 -4.420427
      ESP Fit Center 3429 is at  -0.927012  2.663019 -4.420427
      ESP Fit Center 3430 is at  -1.272309  2.405955 -4.420427
      ESP Fit Center 3431 is at  -1.549015  2.076190 -4.420427
      ESP Fit Center 3432 is at  -1.742213  1.691501 -4.420427
      ESP Fit Center 3433 is at  -1.841488  1.272626 -4.420427
      ESP Fit Center 3434 is at  -1.841488  0.842148 -4.420427
      ESP Fit Center 3435 is at  -1.742213  0.423273 -4.420427
      ESP Fit Center 3436 is at  -1.549015  0.038584 -4.420427
      ESP Fit Center 3437 is at   1.656817  0.225302 -4.420427
      ESP Fit Center 3438 is at   1.804049  0.629820 -4.420427
      ESP Fit Center 3439 is at   1.547816  1.057387 -4.702311
      ESP Fit Center 3440 is at   1.490419  1.474983 -4.702311
      ESP Fit Center 3441 is at   1.322484  1.861607 -4.702311
      ESP Fit Center 3442 is at   1.056467  2.188587 -4.702311
      ESP Fit Center 3443 is at   0.712096  2.431670 -4.702311
      ESP Fit Center 3444 is at   0.314912  2.572829 -4.702311
      ESP Fit Center 3445 is at  -0.105627  2.601595 -4.702311
      ESP Fit Center 3446 is at  -0.518332  2.515834 -4.702311
      ESP Fit Center 3447 is at  -0.892595  2.321906 -4.702311
      ESP Fit Center 3448 is at  -1.200658  2.034195 -4.702311
      ESP Fit Center 3449 is at  -1.419674  1.674039 -4.702311
      ESP Fit Center 3450 is at  -1.533400  1.268148 -4.702311
      ESP Fit Center 3451 is at  -1.533400  0.846626 -4.702311
      ESP Fit Center 3452 is at  -1.419674  0.440735 -4.702311
      ESP Fit Center 3453 is at  -1.200658  0.080579 -4.702311
      ESP Fit Center 3454 is at   1.322484  0.253167 -4.702311
      ESP Fit Center 3455 is at   1.490419  0.639791 -4.702311
      ESP Fit Center 3456 is at   1.199387  1.057387 -4.929951
      ESP Fit Center 3457 is at   1.127056  1.467602 -4.929951
      ESP Fit Center 3458 is at   0.918784  1.828338 -4.929951
      ESP Fit Center 3459 is at   0.599694  2.096087 -4.929951
      ESP Fit Center 3460 is at   0.208271  2.238553 -4.929951
      ESP Fit Center 3461 is at  -0.208271  2.238553 -4.929951
      ESP Fit Center 3462 is at  -0.599694  2.096087 -4.929951
      ESP Fit Center 3463 is at  -0.918784  1.828338 -4.929951
      ESP Fit Center 3464 is at  -1.127056  1.467602 -4.929951
      ESP Fit Center 3465 is at  -1.199387  1.057387 -4.929951
      ESP Fit Center 3466 is at  -1.127056  0.647172 -4.929951
      ESP Fit Center 3467 is at  -0.918784  0.286436 -4.929951
      ESP Fit Center 3468 is at  -0.599694  0.018687 -4.929951
      ESP Fit Center 3469 is at   0.599694  0.018687 -4.929951
      ESP Fit Center 3470 is at   0.918784  0.286436 -4.929951
      ESP Fit Center 3471 is at   1.127056  0.647172 -4.929951
      ESP Fit Center 3472 is at   0.818243  1.057387 -5.097136
      ESP Fit Center 3473 is at   0.708619  1.466508 -5.097136
      ESP Fit Center 3474 is at   0.409121  1.766006 -5.097136
      ESP Fit Center 3475 is at   0.000000  1.875630 -5.097136
      ESP Fit Center 3476 is at  -0.409121  1.766006 -5.097136
      ESP Fit Center 3477 is at  -0.708619  1.466508 -5.097136
      ESP Fit Center 3478 is at  -0.818243  1.057387 -5.097136
      ESP Fit Center 3479 is at  -0.708619  0.648266 -5.097136
      ESP Fit Center 3480 is at  -0.409121  0.348768 -5.097136
      ESP Fit Center 3481 is at  -0.000000  0.239144 -5.097136
      ESP Fit Center 3482 is at   0.409121  0.348768 -5.097136
      ESP Fit Center 3483 is at   0.708619  0.648266 -5.097136
      ESP Fit Center 3484 is at   0.414778  1.057387 -5.199307
      ESP Fit Center 3485 is at   0.207389  1.416596 -5.199307
      ESP Fit Center 3486 is at  -0.207389  1.416596 -5.199307
      ESP Fit Center 3487 is at  -0.414778  1.057387 -5.199307
      ESP Fit Center 3488 is at  -0.207389  0.698178 -5.199307
      ESP Fit Center 3489 is at   0.207389  0.698178 -5.199307
      ESP Fit Center 3490 is at   0.000000  1.057387 -5.233677
      ESP Fit Center 3491 is at  -2.268455 -1.481435 -1.701404
      ESP Fit Center 3492 is at  -2.151912 -1.891042 -1.701404
      ESP Fit Center 3493 is at  -1.962088 -2.272260 -1.701404
      ESP Fit Center 3494 is at   1.962088 -2.272260 -1.701404
      ESP Fit Center 3495 is at   2.151912 -1.891042 -1.701404
      ESP Fit Center 3496 is at   2.268455 -1.481435 -1.701404
      ESP Fit Center 3497 is at  -2.405776 -1.481590 -2.095054
      ESP Fit Center 3498 is at  -2.295564 -1.892904 -2.095054
      ESP Fit Center 3499 is at  -2.115604 -2.278831 -2.095054
      ESP Fit Center 3500 is at  -1.871361 -2.627646 -2.095054
      ESP Fit Center 3501 is at  -1.570259 -2.928748 -2.095054
      ESP Fit Center 3502 is at  -1.221444 -3.172991 -2.095054
      ESP Fit Center 3503 is at   1.221444 -3.172991 -2.095054
      ESP Fit Center 3504 is at   1.570259 -2.928748 -2.095054
      ESP Fit Center 3505 is at   1.871361 -2.627646 -2.095054
      ESP Fit Center 3506 is at   2.115604 -2.278831 -2.095054
      ESP Fit Center 3507 is at   2.295564 -1.892904 -2.095054
      ESP Fit Center 3508 is at   2.405776 -1.481590 -2.095054
      ESP Fit Center 3509 is at   2.511393 -1.057387 -2.505577
      ESP Fit Center 3510 is at  -2.502346 -1.270368 -2.505577
      ESP Fit Center 3511 is at  -2.430358 -1.690203 -2.505577
      ESP Fit Center 3512 is at  -2.288453 -2.091833 -2.505577
      ESP Fit Center 3513 is at  -2.080713 -2.463704 -2.505577
      ESP Fit Center 3514 is at  -1.813115 -2.795117 -2.505577
      ESP Fit Center 3515 is at  -1.493358 -3.076540 -2.505577
      ESP Fit Center 3516 is at  -1.130638 -3.299875 -2.505577
      ESP Fit Center 3517 is at  -0.735393 -3.458697 -2.505577
      ESP Fit Center 3518 is at  -0.318992 -3.548439 -2.505577
      ESP Fit Center 3519 is at   0.106587 -3.566517 -2.505577
      ESP Fit Center 3520 is at   0.529098 -3.512412 -2.505577
      ESP Fit Center 3521 is at   0.936389 -3.387681 -2.505577
      ESP Fit Center 3522 is at   1.316742 -3.195911 -2.505577
      ESP Fit Center 3523 is at   1.659214 -2.942620 -2.505577
      ESP Fit Center 3524 is at   1.953953 -2.635094 -2.505577
      ESP Fit Center 3525 is at   2.192481 -2.282181 -2.505577
      ESP Fit Center 3526 is at   2.367936 -1.894032 -2.505577
      ESP Fit Center 3527 is at   2.475269 -1.481814 -2.505577
      ESP Fit Center 3528 is at   2.511393 -1.057387 -2.921777
      ESP Fit Center 3529 is at  -2.502346 -0.844406 -2.921777
      ESP Fit Center 3530 is at  -2.502346 -1.270368 -2.921777
      ESP Fit Center 3531 is at  -2.430358 -1.690203 -2.921777
      ESP Fit Center 3532 is at  -2.288453 -2.091833 -2.921777
      ESP Fit Center 3533 is at  -2.080713 -2.463704 -2.921777
      ESP Fit Center 3534 is at  -1.813115 -2.795117 -2.921777
      ESP Fit Center 3535 is at  -1.493358 -3.076540 -2.921777
      ESP Fit Center 3536 is at  -1.130638 -3.299875 -2.921777
      ESP Fit Center 3537 is at  -0.735393 -3.458697 -2.921777
      ESP Fit Center 3538 is at  -0.318992 -3.548439 -2.921777
      ESP Fit Center 3539 is at   0.106587 -3.566517 -2.921777
      ESP Fit Center 3540 is at   0.529098 -3.512412 -2.921777
      ESP Fit Center 3541 is at   0.936389 -3.387681 -2.921777
      ESP Fit Center 3542 is at   1.316742 -3.195911 -2.921777
      ESP Fit Center 3543 is at   1.659214 -2.942620 -2.921777
      ESP Fit Center 3544 is at   1.953953 -2.635094 -2.921777
      ESP Fit Center 3545 is at   2.192481 -2.282181 -2.921777
      ESP Fit Center 3546 is at   2.367936 -1.894032 -2.921777
      ESP Fit Center 3547 is at   2.475269 -1.481814 -2.921777
      ESP Fit Center 3548 is at   2.442889 -1.057387 -3.332300
      ESP Fit Center 3549 is at   2.405776 -0.633184 -3.332300
      ESP Fit Center 3550 is at  -2.405776 -0.633184 -3.332300
      ESP Fit Center 3551 is at  -2.442889 -1.057387 -3.332300
      ESP Fit Center 3552 is at  -2.405776 -1.481590 -3.332300
      ESP Fit Center 3553 is at  -2.295564 -1.892904 -3.332300
      ESP Fit Center 3554 is at  -2.115604 -2.278831 -3.332300
      ESP Fit Center 3555 is at  -1.871361 -2.627646 -3.332300
      ESP Fit Center 3556 is at  -1.570259 -2.928748 -3.332300
      ESP Fit Center 3557 is at  -1.221444 -3.172991 -3.332300
      ESP Fit Center 3558 is at  -0.835517 -3.352951 -3.332300
      ESP Fit Center 3559 is at  -0.424203 -3.463163 -3.332300
      ESP Fit Center 3560 is at  -0.000000 -3.500276 -3.332300
      ESP Fit Center 3561 is at   0.424203 -3.463163 -3.332300
      ESP Fit Center 3562 is at   0.835517 -3.352951 -3.332300
      ESP Fit Center 3563 is at   1.221444 -3.172991 -3.332300
      ESP Fit Center 3564 is at   1.570259 -2.928748 -3.332300
      ESP Fit Center 3565 is at   1.871361 -2.627646 -3.332300
      ESP Fit Center 3566 is at   2.115604 -2.278831 -3.332300
      ESP Fit Center 3567 is at   2.295564 -1.892904 -3.332300
      ESP Fit Center 3568 is at   2.405776 -1.481590 -3.332300
      ESP Fit Center 3569 is at   2.307749 -1.057387 -3.725949
      ESP Fit Center 3570 is at   2.268455 -0.633339 -3.725949
      ESP Fit Center 3571 is at  -2.268455 -0.633339 -3.725949
      ESP Fit Center 3572 is at  -2.307749 -1.057387 -3.725949
      ESP Fit Center 3573 is at  -2.268455 -1.481435 -3.725949
      ESP Fit Center 3574 is at  -2.151912 -1.891042 -3.725949
      ESP Fit Center 3575 is at  -1.962088 -2.272260 -3.725949
      ESP Fit Center 3576 is at  -1.705447 -2.612107 -3.725949
      ESP Fit Center 3577 is at  -1.390729 -2.899010 -3.725949
      ESP Fit Center 3578 is at  -1.028652 -3.123199 -3.725949
      ESP Fit Center 3579 is at  -0.631545 -3.277039 -3.725949
      ESP Fit Center 3580 is at  -0.212932 -3.355291 -3.725949
      ESP Fit Center 3581 is at   0.212932 -3.355291 -3.725949
      ESP Fit Center 3582 is at   0.631545 -3.277039 -3.725949
      ESP Fit Center 3583 is at   1.028652 -3.123199 -3.725949
      ESP Fit Center 3584 is at   1.390729 -2.899010 -3.725949
      ESP Fit Center 3585 is at   1.705447 -2.612107 -3.725949
      ESP Fit Center 3586 is at   1.962088 -2.272260 -3.725949
      ESP Fit Center 3587 is at   2.151912 -1.891042 -3.725949
      ESP Fit Center 3588 is at   2.268455 -1.481435 -3.725949
      ESP Fit Center 3589 is at   2.109660 -1.057387 -4.091986
      ESP Fit Center 3590 is at   2.066475 -0.632716 -4.091986
      ESP Fit Center 3591 is at   1.938688 -0.225430 -4.091986
      ESP Fit Center 3592 is at  -2.012909 -0.425833 -4.091986
      ESP Fit Center 3593 is at  -2.098836 -0.843956 -4.091986
      ESP Fit Center 3594 is at  -2.098836 -1.270818 -4.091986
      ESP Fit Center 3595 is at  -2.012909 -1.688941 -4.091986
      ESP Fit Center 3596 is at  -1.844574 -2.081209 -4.091986
      ESP Fit Center 3597 is at  -1.600721 -2.431561 -4.091986
      ESP Fit Center 3598 is at  -1.291335 -2.725655 -4.091986
      ESP Fit Center 3599 is at  -0.929082 -2.951449 -4.091986
      ESP Fit Center 3600 is at  -0.528792 -3.099700 -4.091986
      ESP Fit Center 3601 is at  -0.106853 -3.164339 -4.091986
      ESP Fit Center 3602 is at   0.319461 -3.142719 -4.091986
      ESP Fit Center 3603 is at   0.732696 -3.035725 -4.091986
      ESP Fit Center 3604 is at   1.115934 -2.847737 -4.091986
      ESP Fit Center 3605 is at   1.453486 -2.586453 -4.091986
      ESP Fit Center 3606 is at   1.731531 -2.262568 -4.091986
      ESP Fit Center 3607 is at   1.938688 -1.889344 -4.091986
      ESP Fit Center 3608 is at   2.066475 -1.482058 -4.091986
      ESP Fit Center 3609 is at   1.854024 -1.057387 -4.420427
      ESP Fit Center 3610 is at   1.804049 -0.629820 -4.420427
      ESP Fit Center 3611 is at   1.656817 -0.225302 -4.420427
      ESP Fit Center 3612 is at  -1.549015 -0.038584 -4.420427
      ESP Fit Center 3613 is at  -1.742213 -0.423273 -4.420427
      ESP Fit Center 3614 is at  -1.841488 -0.842148 -4.420427
      ESP Fit Center 3615 is at  -1.841488 -1.272626 -4.420427
      ESP Fit Center 3616 is at  -1.742213 -1.691501 -4.420427
      ESP Fit Center 3617 is at  -1.549015 -2.076190 -4.420427
      ESP Fit Center 3618 is at  -1.272309 -2.405955 -4.420427
      ESP Fit Center 3619 is at  -0.927012 -2.663019 -4.420427
      ESP Fit Center 3620 is at  -0.531740 -2.833523 -4.420427
      ESP Fit Center 3621 is at  -0.107802 -2.908275 -4.420427
      ESP Fit Center 3622 is at   0.321948 -2.883244 -4.420427
      ESP Fit Center 3623 is at   0.734341 -2.759782 -4.420427
      ESP Fit Center 3624 is at   1.107147 -2.544543 -4.420427
      ESP Fit Center 3625 is at   1.420265 -2.249131 -4.420427
      ESP Fit Center 3626 is at   1.656817 -1.889472 -4.420427
      ESP Fit Center 3627 is at   1.804049 -1.484954 -4.420427
      ESP Fit Center 3628 is at   1.547816 -1.057387 -4.702311
      ESP Fit Center 3629 is at   1.490419 -0.639791 -4.702311
      ESP Fit Center 3630 is at   1.322484 -0.253167 -4.702311
      ESP Fit Center 3631 is at  -1.200658 -0.080579 -4.702311
      ESP Fit Center 3632 is at  -1.419674 -0.440735 -4.702311
      ESP Fit Center 3633 is at  -1.533400 -0.846626 -4.702311
      ESP Fit Center 3634 is at  -1.533400 -1.268148 -4.702311
      ESP Fit Center 3635 is at  -1.419674 -1.674039 -4.702311
      ESP Fit Center 3636 is at  -1.200658 -2.034195 -4.702311
      ESP Fit Center 3637 is at  -0.892595 -2.321906 -4.702311
      ESP Fit Center 3638 is at  -0.518332 -2.515834 -4.702311
      ESP Fit Center 3639 is at  -0.105627 -2.601595 -4.702311
      ESP Fit Center 3640 is at   0.314912 -2.572829 -4.702311
      ESP Fit Center 3641 is at   0.712096 -2.431670 -4.702311
      ESP Fit Center 3642 is at   1.056467 -2.188587 -4.702311
      ESP Fit Center 3643 is at   1.322484 -1.861607 -4.702311
      ESP Fit Center 3644 is at   1.490419 -1.474983 -4.702311
      ESP Fit Center 3645 is at   1.199387 -1.057387 -4.929951
      ESP Fit Center 3646 is at   1.127056 -0.647172 -4.929951
      ESP Fit Center 3647 is at   0.918784 -0.286436 -4.929951
      ESP Fit Center 3648 is at   0.599694 -0.018687 -4.929951
      ESP Fit Center 3649 is at  -0.599694 -0.018687 -4.929951
      ESP Fit Center 3650 is at  -0.918784 -0.286436 -4.929951
      ESP Fit Center 3651 is at  -1.127056 -0.647172 -4.929951
      ESP Fit Center 3652 is at  -1.199387 -1.057387 -4.929951
      ESP Fit Center 3653 is at  -1.127056 -1.467602 -4.929951
      ESP Fit Center 3654 is at  -0.918784 -1.828338 -4.929951
      ESP Fit Center 3655 is at  -0.599694 -2.096087 -4.929951
      ESP Fit Center 3656 is at  -0.208271 -2.238553 -4.929951
      ESP Fit Center 3657 is at   0.208271 -2.238553 -4.929951
      ESP Fit Center 3658 is at   0.599694 -2.096087 -4.929951
      ESP Fit Center 3659 is at   0.918784 -1.828338 -4.929951
      ESP Fit Center 3660 is at   1.127056 -1.467602 -4.929951
      ESP Fit Center 3661 is at   0.818243 -1.057387 -5.097136
      ESP Fit Center 3662 is at   0.708619 -0.648266 -5.097136
      ESP Fit Center 3663 is at   0.409121 -0.348768 -5.097136
      ESP Fit Center 3664 is at  -0.000000 -0.239144 -5.097136
      ESP Fit Center 3665 is at  -0.409121 -0.348768 -5.097136
      ESP Fit Center 3666 is at  -0.708619 -0.648266 -5.097136
      ESP Fit Center 3667 is at  -0.818243 -1.057387 -5.097136
      ESP Fit Center 3668 is at  -0.708619 -1.466508 -5.097136
      ESP Fit Center 3669 is at  -0.409121 -1.766006 -5.097136
      ESP Fit Center 3670 is at  -0.000000 -1.875630 -5.097136
      ESP Fit Center 3671 is at   0.409121 -1.766006 -5.097136
      ESP Fit Center 3672 is at   0.708619 -1.466508 -5.097136
      ESP Fit Center 3673 is at   0.414778 -1.057387 -5.199307
      ESP Fit Center 3674 is at   0.207389 -0.698178 -5.199307
      ESP Fit Center 3675 is at  -0.207389 -0.698178 -5.199307
      ESP Fit Center 3676 is at  -0.414778 -1.057387 -5.199307
      ESP Fit Center 3677 is at  -0.207389 -1.416596 -5.199307
      ESP Fit Center 3678 is at   0.207389 -1.416596 -5.199307
      ESP Fit Center 3679 is at   0.000000 -1.057387 -5.233677
      ESP Fit Center 3680 is at   2.937252  1.205317  0.586128
      ESP Fit Center 3681 is at   2.908667  1.614104  0.586128
      ESP Fit Center 3682 is at   2.823468  2.014933  0.586128
      ESP Fit Center 3683 is at   2.683313  2.400005  0.586128
      ESP Fit Center 3684 is at   2.490931  2.761824  0.586128
      ESP Fit Center 3685 is at   2.250066  3.093346  0.586128
      ESP Fit Center 3686 is at   1.965405  3.388121  0.586128
      ESP Fit Center 3687 is at   1.642491  3.640409  0.586128
      ESP Fit Center 3688 is at   1.287607  3.845302  0.586128
      ESP Fit Center 3689 is at  -1.100314  3.928690  0.586128
      ESP Fit Center 3690 is at  -1.468626  3.749052  0.586128
      ESP Fit Center 3691 is at  -1.808353  3.519903  0.586128
      ESP Fit Center 3692 is at  -2.112882  3.245704  0.586128
      ESP Fit Center 3693 is at  -2.376287  2.931791  0.586128
      ESP Fit Center 3694 is at  -2.593440  2.584273  0.586128
      ESP Fit Center 3695 is at  -2.760114  2.209916  0.586128
      ESP Fit Center 3696 is at  -2.873066  1.816006  0.586128
      ESP Fit Center 3697 is at  -2.930097  1.410209  0.586128
      ESP Fit Center 3698 is at  -2.930097  1.000425  0.586128
      ESP Fit Center 3699 is at  -2.873066  0.594628  0.586128
      ESP Fit Center 3700 is at  -2.760114  0.200718  0.586128
      ESP Fit Center 3701 is at   2.823468  0.395701  0.586128
      ESP Fit Center 3702 is at   2.908667  0.796530  0.586128
      ESP Fit Center 3703 is at   2.993006  1.205317  0.180487
      ESP Fit Center 3704 is at   2.963879  1.621863  0.180487
      ESP Fit Center 3705 is at   2.877062  2.030301  0.180487
      ESP Fit Center 3706 is at   2.734247  2.422682  0.180487
      ESP Fit Center 3707 is at   2.538213  2.791369  0.180487
      ESP Fit Center 3708 is at   2.292776  3.129184  0.180487
      ESP Fit Center 3709 is at   2.002712  3.429554  0.180487
      ESP Fit Center 3710 is at   1.673668  3.686632  0.180487
      ESP Fit Center 3711 is at  -1.842679  3.563838  0.180487
      ESP Fit Center 3712 is at  -2.152989  3.284434  0.180487
      ESP Fit Center 3713 is at  -2.421393  2.964562  0.180487
      ESP Fit Center 3714 is at  -2.642668  2.610448  0.180487
      ESP Fit Center 3715 is at  -2.812506  2.228985  0.180487
      ESP Fit Center 3716 is at  -2.927602  1.827598  0.180487
      ESP Fit Center 3717 is at  -2.985715  1.414099  0.180487
      ESP Fit Center 3718 is at  -2.985715  0.996535  0.180487
      ESP Fit Center 3719 is at  -2.927602  0.583036  0.180487
      ESP Fit Center 3720 is at   2.877062  0.380333  0.180487
      ESP Fit Center 3721 is at   2.963879  0.788771  0.180487
      ESP Fit Center 3722 is at   2.993006  1.205317 -0.228967
      ESP Fit Center 3723 is at   2.963879  1.621863 -0.228967
      ESP Fit Center 3724 is at   2.877062  2.030301 -0.228967
      ESP Fit Center 3725 is at   2.734247  2.422682 -0.228967
      ESP Fit Center 3726 is at   2.538213  2.791369 -0.228967
      ESP Fit Center 3727 is at   2.292776  3.129184 -0.228967
      ESP Fit Center 3728 is at   2.002712  3.429554 -0.228967
      ESP Fit Center 3729 is at  -2.152989  3.284434 -0.228967
      ESP Fit Center 3730 is at  -2.421393  2.964562 -0.228967
      ESP Fit Center 3731 is at  -2.642668  2.610448 -0.228967
      ESP Fit Center 3732 is at  -2.812506  2.228985 -0.228967
      ESP Fit Center 3733 is at  -2.927602  1.827598 -0.228967
      ESP Fit Center 3734 is at  -2.985715  1.414099 -0.228967
      ESP Fit Center 3735 is at  -2.985715  0.996535 -0.228967
      ESP Fit Center 3736 is at  -2.927602  0.583036 -0.228967
      ESP Fit Center 3737 is at   2.963879  0.788771 -0.228967
      ESP Fit Center 3738 is at   2.937252  1.205317 -0.634608
      ESP Fit Center 3739 is at   2.908667  1.614104 -0.634608
      ESP Fit Center 3740 is at   2.823468  2.014933 -0.634608
      ESP Fit Center 3741 is at   2.683313  2.400005 -0.634608
      ESP Fit Center 3742 is at   2.490931  2.761824 -0.634608
      ESP Fit Center 3743 is at   2.250066  3.093346 -0.634608
      ESP Fit Center 3744 is at  -2.376287  2.931791 -0.634608
      ESP Fit Center 3745 is at  -2.593440  2.584273 -0.634608
      ESP Fit Center 3746 is at  -2.760114  2.209916 -0.634608
      ESP Fit Center 3747 is at  -2.873066  1.816006 -0.634608
      ESP Fit Center 3748 is at  -2.930097  1.410209 -0.634608
      ESP Fit Center 3749 is at  -2.930097  1.000425 -0.634608
      ESP Fit Center 3750 is at   2.908667  0.796530 -0.634608
      ESP Fit Center 3751 is at   2.826783  1.205317 -1.028879
      ESP Fit Center 3752 is at   2.796659  1.616900 -1.028879
      ESP Fit Center 3753 is at   2.706929  2.019711 -1.028879
      ESP Fit Center 3754 is at   2.559505  2.405164 -1.028879
      ESP Fit Center 3755 is at   2.357531  2.765045 -1.028879
      ESP Fit Center 3756 is at  -2.237389  2.932972 -1.028879
      ESP Fit Center 3757 is at  -2.465094  2.588795 -1.028879
      ESP Fit Center 3758 is at  -2.640261  2.215131 -1.028879
      ESP Fit Center 3759 is at  -2.759154  1.819945 -1.028879
      ESP Fit Center 3760 is at  -2.819242  1.411659 -1.028879
      ESP Fit Center 3761 is at  -2.819242  0.998975 -1.028879
      ESP Fit Center 3762 is at   2.663656  1.205317 -1.404435
      ESP Fit Center 3763 is at   2.630862  1.622005 -1.404435
      ESP Fit Center 3764 is at   2.533287  2.028432 -1.404435
      ESP Fit Center 3765 is at   2.373335  2.414591 -1.404435
      ESP Fit Center 3766 is at  -2.373335  2.414591 -1.404435
      ESP Fit Center 3767 is at  -2.533287  2.028432 -1.404435
      ESP Fit Center 3768 is at  -2.630862  1.622005 -1.404435
      ESP Fit Center 3769 is at  -2.663656  1.205317 -1.404435
      ESP Fit Center 3770 is at   2.937252 -1.205317  0.586128
      ESP Fit Center 3771 is at   2.908667 -0.796530  0.586128
      ESP Fit Center 3772 is at   2.823468 -0.395701  0.586128
      ESP Fit Center 3773 is at  -2.760114 -0.200718  0.586128
      ESP Fit Center 3774 is at  -2.873066 -0.594628  0.586128
      ESP Fit Center 3775 is at  -2.930097 -1.000425  0.586128
      ESP Fit Center 3776 is at  -2.930097 -1.410209  0.586128
      ESP Fit Center 3777 is at  -2.873066 -1.816006  0.586128
      ESP Fit Center 3778 is at  -2.760114 -2.209916  0.586128
      ESP Fit Center 3779 is at  -2.593440 -2.584273  0.586128
      ESP Fit Center 3780 is at  -2.376287 -2.931791  0.586128
      ESP Fit Center 3781 is at  -2.112882 -3.245704  0.586128
      ESP Fit Center 3782 is at  -1.808353 -3.519903  0.586128
      ESP Fit Center 3783 is at  -1.468626 -3.749052  0.586128
      ESP Fit Center 3784 is at  -1.100314 -3.928690  0.586128
      ESP Fit Center 3785 is at   1.287607 -3.845302  0.586128
      ESP Fit Center 3786 is at   1.642491 -3.640409  0.586128
      ESP Fit Center 3787 is at   1.965405 -3.388121  0.586128
      ESP Fit Center 3788 is at   2.250066 -3.093346  0.586128
      ESP Fit Center 3789 is at   2.490931 -2.761824  0.586128
      ESP Fit Center 3790 is at   2.683313 -2.400005  0.586128
      ESP Fit Center 3791 is at   2.823468 -2.014933  0.586128
      ESP Fit Center 3792 is at   2.908667 -1.614104  0.586128
      ESP Fit Center 3793 is at   2.993006 -1.205317  0.180487
      ESP Fit Center 3794 is at   2.963879 -0.788771  0.180487
      ESP Fit Center 3795 is at   2.877062 -0.380333  0.180487
      ESP Fit Center 3796 is at  -2.927602 -0.583036  0.180487
      ESP Fit Center 3797 is at  -2.985715 -0.996535  0.180487
      ESP Fit Center 3798 is at  -2.985715 -1.414099  0.180487
      ESP Fit Center 3799 is at  -2.927602 -1.827598  0.180487
      ESP Fit Center 3800 is at  -2.812506 -2.228985  0.180487
      ESP Fit Center 3801 is at  -2.642668 -2.610448  0.180487
      ESP Fit Center 3802 is at  -2.421393 -2.964562  0.180487
      ESP Fit Center 3803 is at  -2.152989 -3.284434  0.180487
      ESP Fit Center 3804 is at  -1.842679 -3.563838  0.180487
      ESP Fit Center 3805 is at   1.673668 -3.686632  0.180487
      ESP Fit Center 3806 is at   2.002712 -3.429554  0.180487
      ESP Fit Center 3807 is at   2.292776 -3.129184  0.180487
      ESP Fit Center 3808 is at   2.538213 -2.791369  0.180487
      ESP Fit Center 3809 is at   2.734247 -2.422682  0.180487
      ESP Fit Center 3810 is at   2.877062 -2.030301  0.180487
      ESP Fit Center 3811 is at   2.963879 -1.621863  0.180487
      ESP Fit Center 3812 is at   2.993006 -1.205317 -0.228967
      ESP Fit Center 3813 is at   2.963879 -0.788771 -0.228967
      ESP Fit Center 3814 is at  -2.927602 -0.583036 -0.228967
      ESP Fit Center 3815 is at  -2.985715 -0.996535 -0.228967
      ESP Fit Center 3816 is at  -2.985715 -1.414099 -0.228967
      ESP Fit Center 3817 is at  -2.927602 -1.827598 -0.228967
      ESP Fit Center 3818 is at  -2.812506 -2.228985 -0.228967
      ESP Fit Center 3819 is at  -2.642668 -2.610448 -0.228967
      ESP Fit Center 3820 is at  -2.421393 -2.964562 -0.228967
      ESP Fit Center 3821 is at  -2.152989 -3.284434 -0.228967
      ESP Fit Center 3822 is at   2.002712 -3.429554 -0.228967
      ESP Fit Center 3823 is at   2.292776 -3.129184 -0.228967
      ESP Fit Center 3824 is at   2.538213 -2.791369 -0.228967
      ESP Fit Center 3825 is at   2.734247 -2.422682 -0.228967
      ESP Fit Center 3826 is at   2.877062 -2.030301 -0.228967
      ESP Fit Center 3827 is at   2.963879 -1.621863 -0.228967
      ESP Fit Center 3828 is at   2.937252 -1.205317 -0.634608
      ESP Fit Center 3829 is at   2.908667 -0.796530 -0.634608
      ESP Fit Center 3830 is at  -2.930097 -1.000425 -0.634608
      ESP Fit Center 3831 is at  -2.930097 -1.410209 -0.634608
      ESP Fit Center 3832 is at  -2.873066 -1.816006 -0.634608
      ESP Fit Center 3833 is at  -2.760114 -2.209916 -0.634608
      ESP Fit Center 3834 is at  -2.593440 -2.584273 -0.634608
      ESP Fit Center 3835 is at  -2.376287 -2.931791 -0.634608
      ESP Fit Center 3836 is at   2.250066 -3.093346 -0.634608
      ESP Fit Center 3837 is at   2.490931 -2.761824 -0.634608
      ESP Fit Center 3838 is at   2.683313 -2.400005 -0.634608
      ESP Fit Center 3839 is at   2.823468 -2.014933 -0.634608
      ESP Fit Center 3840 is at   2.908667 -1.614104 -0.634608
      ESP Fit Center 3841 is at   2.826783 -1.205317 -1.028879
      ESP Fit Center 3842 is at  -2.819242 -0.998975 -1.028879
      ESP Fit Center 3843 is at  -2.819242 -1.411659 -1.028879
      ESP Fit Center 3844 is at  -2.759154 -1.819945 -1.028879
      ESP Fit Center 3845 is at  -2.640261 -2.215131 -1.028879
      ESP Fit Center 3846 is at  -2.465094 -2.588795 -1.028879
      ESP Fit Center 3847 is at  -2.237389 -2.932972 -1.028879
      ESP Fit Center 3848 is at   2.357531 -2.765045 -1.028879
      ESP Fit Center 3849 is at   2.559505 -2.405164 -1.028879
      ESP Fit Center 3850 is at   2.706929 -2.019711 -1.028879
      ESP Fit Center 3851 is at   2.796659 -1.616900 -1.028879
      ESP Fit Center 3852 is at   2.663656 -1.205317 -1.404435
      ESP Fit Center 3853 is at  -2.663656 -1.205317 -1.404435
      ESP Fit Center 3854 is at  -2.630862 -1.622005 -1.404435
      ESP Fit Center 3855 is at  -2.533287 -2.028432 -1.404435
      ESP Fit Center 3856 is at  -2.373335 -2.414591 -1.404435
      ESP Fit Center 3857 is at   2.373335 -2.414591 -1.404435
      ESP Fit Center 3858 is at   2.533287 -2.028432 -1.404435
      ESP Fit Center 3859 is at   2.630862 -1.622005 -1.404435
      ESP Fit Center 3860 is at   2.310907  2.023550  3.080339
      ESP Fit Center 3861 is at   2.139679  2.402350  3.080339
      ESP Fit Center 3862 is at  -2.233339  2.216587  3.080339
      ESP Fit Center 3863 is at  -2.371826  1.824629  3.080339
      ESP Fit Center 3864 is at   2.630862  1.623742  2.730493
      ESP Fit Center 3865 is at   2.533287  2.030169  2.730493
      ESP Fit Center 3866 is at   2.373335  2.416328  2.730493
      ESP Fit Center 3867 is at   2.154943  2.772712  2.730493
      ESP Fit Center 3868 is at  -2.154943  2.772712  2.730493
      ESP Fit Center 3869 is at  -2.373335  2.416328  2.730493
      ESP Fit Center 3870 is at  -2.533287  2.030169  2.730493
      ESP Fit Center 3871 is at  -2.630862  1.623742  2.730493
      ESP Fit Center 3872 is at   2.826783  1.207054  2.354937
      ESP Fit Center 3873 is at   2.796659  1.618637  2.354937
      ESP Fit Center 3874 is at   2.706929  2.021448  2.354937
      ESP Fit Center 3875 is at   2.559505  2.406901  2.354937
      ESP Fit Center 3876 is at   2.357531  2.766782  2.354937
      ESP Fit Center 3877 is at  -2.237389  2.934709  2.354937
      ESP Fit Center 3878 is at  -2.465094  2.590532  2.354937
      ESP Fit Center 3879 is at  -2.640261  2.216868  2.354937
      ESP Fit Center 3880 is at  -2.759154  1.821682  2.354937
      ESP Fit Center 3881 is at  -2.819242  1.413396  2.354937
      ESP Fit Center 3882 is at  -2.819242  1.000712  2.354937
      ESP Fit Center 3883 is at   2.937252  1.207054  1.960666
      ESP Fit Center 3884 is at   2.908667  1.615841  1.960666
      ESP Fit Center 3885 is at   2.823468  2.016670  1.960666
      ESP Fit Center 3886 is at   2.683313  2.401742  1.960666
      ESP Fit Center 3887 is at   2.490931  2.763561  1.960666
      ESP Fit Center 3888 is at   2.250066  3.095083  1.960666
      ESP Fit Center 3889 is at  -2.376287  2.933528  1.960666
      ESP Fit Center 3890 is at  -2.593440  2.586010  1.960666
      ESP Fit Center 3891 is at  -2.760114  2.211653  1.960666
      ESP Fit Center 3892 is at  -2.873066  1.817743  1.960666
      ESP Fit Center 3893 is at  -2.930097  1.411946  1.960666
      ESP Fit Center 3894 is at  -2.930097  1.002162  1.960666
      ESP Fit Center 3895 is at   2.908667  0.798267  1.960666
      ESP Fit Center 3896 is at   2.993006  1.207054  1.555025
      ESP Fit Center 3897 is at   2.963879  1.623600  1.555025
      ESP Fit Center 3898 is at   2.877062  2.032038  1.555025
      ESP Fit Center 3899 is at   2.734247  2.424419  1.555025
      ESP Fit Center 3900 is at   2.538213  2.793106  1.555025
      ESP Fit Center 3901 is at   2.292776  3.130921  1.555025
      ESP Fit Center 3902 is at   2.002712  3.431291  1.555025
      ESP Fit Center 3903 is at  -2.152989  3.286171  1.555025
      ESP Fit Center 3904 is at  -2.421393  2.966299  1.555025
      ESP Fit Center 3905 is at  -2.642668  2.612185  1.555025
      ESP Fit Center 3906 is at  -2.812506  2.230722  1.555025
      ESP Fit Center 3907 is at  -2.927602  1.829335  1.555025
      ESP Fit Center 3908 is at  -2.985715  1.415836  1.555025
      ESP Fit Center 3909 is at  -2.985715  0.998272  1.555025
      ESP Fit Center 3910 is at  -2.927602  0.584773  1.555025
      ESP Fit Center 3911 is at   2.963879  0.790508  1.555025
      ESP Fit Center 3912 is at   2.993006  1.207054  1.145571
      ESP Fit Center 3913 is at   2.963879  1.623600  1.145571
      ESP Fit Center 3914 is at   2.877062  2.032038  1.145571
      ESP Fit Center 3915 is at   2.734247  2.424419  1.145571
      ESP Fit Center 3916 is at   2.538213  2.793106  1.145571
      ESP Fit Center 3917 is at   2.292776  3.130921  1.145571
      ESP Fit Center 3918 is at   2.002712  3.431291  1.145571
      ESP Fit Center 3919 is at  -1.842679  3.565575  1.145571
      ESP Fit Center 3920 is at  -2.152989  3.286171  1.145571
      ESP Fit Center 3921 is at  -2.421393  2.966299  1.145571
      ESP Fit Center 3922 is at  -2.642668  2.612185  1.145571
      ESP Fit Center 3923 is at  -2.812506  2.230722  1.145571
      ESP Fit Center 3924 is at  -2.927602  1.829335  1.145571
      ESP Fit Center 3925 is at  -2.985715  1.415836  1.145571
      ESP Fit Center 3926 is at  -2.985715  0.998272  1.145571
      ESP Fit Center 3927 is at  -2.927602  0.584773  1.145571
      ESP Fit Center 3928 is at   2.877062  0.382070  1.145571
      ESP Fit Center 3929 is at   2.963879  0.790508  1.145571
      ESP Fit Center 3930 is at   2.937252  1.207054  0.739930
      ESP Fit Center 3931 is at   2.908667  1.615841  0.739930
      ESP Fit Center 3932 is at   2.823468  2.016670  0.739930
      ESP Fit Center 3933 is at   2.683313  2.401742  0.739930
      ESP Fit Center 3934 is at   2.490931  2.763561  0.739930
      ESP Fit Center 3935 is at   2.250066  3.095083  0.739930
      ESP Fit Center 3936 is at   1.965405  3.389858  0.739930
      ESP Fit Center 3937 is at   1.642491  3.642146  0.739930
      ESP Fit Center 3938 is at   1.287607  3.847039  0.739930
      ESP Fit Center 3939 is at  -1.468626  3.750789  0.739930
      ESP Fit Center 3940 is at  -1.808353  3.521640  0.739930
      ESP Fit Center 3941 is at  -2.112882  3.247441  0.739930
      ESP Fit Center 3942 is at  -2.376287  2.933528  0.739930
      ESP Fit Center 3943 is at  -2.593440  2.586010  0.739930
      ESP Fit Center 3944 is at  -2.760114  2.211653  0.739930
      ESP Fit Center 3945 is at  -2.873066  1.817743  0.739930
      ESP Fit Center 3946 is at  -2.930097  1.411946  0.739930
      ESP Fit Center 3947 is at  -2.930097  1.002162  0.739930
      ESP Fit Center 3948 is at  -2.873066  0.596365  0.739930
      ESP Fit Center 3949 is at  -2.760114  0.202455  0.739930
      ESP Fit Center 3950 is at   2.823468  0.397438  0.739930
      ESP Fit Center 3951 is at   2.908667  0.798267  0.739930
      ESP Fit Center 3952 is at  -2.371826 -1.824629  3.080339
      ESP Fit Center 3953 is at  -2.233339 -2.216587  3.080339
      ESP Fit Center 3954 is at   2.139679 -2.402350  3.080339
      ESP Fit Center 3955 is at   2.310907 -2.023550  3.080339
      ESP Fit Center 3956 is at  -2.630862 -1.623742  2.730493
      ESP Fit Center 3957 is at  -2.533287 -2.030169  2.730493
      ESP Fit Center 3958 is at  -2.373335 -2.416328  2.730493
      ESP Fit Center 3959 is at  -2.154943 -2.772712  2.730493
      ESP Fit Center 3960 is at   2.154943 -2.772712  2.730493
      ESP Fit Center 3961 is at   2.373335 -2.416328  2.730493
      ESP Fit Center 3962 is at   2.533287 -2.030169  2.730493
      ESP Fit Center 3963 is at   2.630862 -1.623742  2.730493
      ESP Fit Center 3964 is at   2.826783 -1.207054  2.354937
      ESP Fit Center 3965 is at  -2.819242 -1.000712  2.354937
      ESP Fit Center 3966 is at  -2.819242 -1.413396  2.354937
      ESP Fit Center 3967 is at  -2.759154 -1.821682  2.354937
      ESP Fit Center 3968 is at  -2.640261 -2.216868  2.354937
      ESP Fit Center 3969 is at  -2.465094 -2.590532  2.354937
      ESP Fit Center 3970 is at  -2.237389 -2.934709  2.354937
      ESP Fit Center 3971 is at   2.357531 -2.766782  2.354937
      ESP Fit Center 3972 is at   2.559505 -2.406901  2.354937
      ESP Fit Center 3973 is at   2.706929 -2.021448  2.354937
      ESP Fit Center 3974 is at   2.796659 -1.618637  2.354937
      ESP Fit Center 3975 is at   2.937252 -1.207054  1.960666
      ESP Fit Center 3976 is at   2.908667 -0.798267  1.960666
      ESP Fit Center 3977 is at  -2.930097 -1.002162  1.960666
      ESP Fit Center 3978 is at  -2.930097 -1.411946  1.960666
      ESP Fit Center 3979 is at  -2.873066 -1.817743  1.960666
      ESP Fit Center 3980 is at  -2.760114 -2.211653  1.960666
      ESP Fit Center 3981 is at  -2.593440 -2.586010  1.960666
      ESP Fit Center 3982 is at  -2.376287 -2.933528  1.960666
      ESP Fit Center 3983 is at   2.250066 -3.095083  1.960666
      ESP Fit Center 3984 is at   2.490931 -2.763561  1.960666
      ESP Fit Center 3985 is at   2.683313 -2.401742  1.960666
      ESP Fit Center 3986 is at   2.823468 -2.016670  1.960666
      ESP Fit Center 3987 is at   2.908667 -1.615841  1.960666
      ESP Fit Center 3988 is at   2.993006 -1.207054  1.555025
      ESP Fit Center 3989 is at   2.963879 -0.790508  1.555025
      ESP Fit Center 3990 is at  -2.927602 -0.584773  1.555025
      ESP Fit Center 3991 is at  -2.985715 -0.998272  1.555025
      ESP Fit Center 3992 is at  -2.985715 -1.415836  1.555025
      ESP Fit Center 3993 is at  -2.927602 -1.829335  1.555025
      ESP Fit Center 3994 is at  -2.812506 -2.230722  1.555025
      ESP Fit Center 3995 is at  -2.642668 -2.612185  1.555025
      ESP Fit Center 3996 is at  -2.421393 -2.966299  1.555025
      ESP Fit Center 3997 is at  -2.152989 -3.286171  1.555025
      ESP Fit Center 3998 is at   2.002712 -3.431291  1.555025
      ESP Fit Center 3999 is at   2.292776 -3.130921  1.555025
      ESP Fit Center 4000 is at   2.538213 -2.793106  1.555025
      ESP Fit Center 4001 is at   2.734247 -2.424419  1.555025
      ESP Fit Center 4002 is at   2.877062 -2.032038  1.555025
      ESP Fit Center 4003 is at   2.963879 -1.623600  1.555025
      ESP Fit Center 4004 is at   2.993006 -1.207054  1.145571
      ESP Fit Center 4005 is at   2.963879 -0.790508  1.145571
      ESP Fit Center 4006 is at   2.877062 -0.382070  1.145571
      ESP Fit Center 4007 is at  -2.927602 -0.584773  1.145571
      ESP Fit Center 4008 is at  -2.985715 -0.998272  1.145571
      ESP Fit Center 4009 is at  -2.985715 -1.415836  1.145571
      ESP Fit Center 4010 is at  -2.927602 -1.829335  1.145571
      ESP Fit Center 4011 is at  -2.812506 -2.230722  1.145571
      ESP Fit Center 4012 is at  -2.642668 -2.612185  1.145571
      ESP Fit Center 4013 is at  -2.421393 -2.966299  1.145571
      ESP Fit Center 4014 is at  -2.152989 -3.286171  1.145571
      ESP Fit Center 4015 is at  -1.842679 -3.565575  1.145571
      ESP Fit Center 4016 is at   2.002712 -3.431291  1.145571
      ESP Fit Center 4017 is at   2.292776 -3.130921  1.145571
      ESP Fit Center 4018 is at   2.538213 -2.793106  1.145571
      ESP Fit Center 4019 is at   2.734247 -2.424419  1.145571
      ESP Fit Center 4020 is at   2.877062 -2.032038  1.145571
      ESP Fit Center 4021 is at   2.963879 -1.623600  1.145571
      ESP Fit Center 4022 is at   2.937252 -1.207054  0.739930
      ESP Fit Center 4023 is at   2.908667 -0.798267  0.739930
      ESP Fit Center 4024 is at   2.823468 -0.397438  0.739930
      ESP Fit Center 4025 is at  -2.760114 -0.202455  0.739930
      ESP Fit Center 4026 is at  -2.873066 -0.596365  0.739930
      ESP Fit Center 4027 is at  -2.930097 -1.002162  0.739930
      ESP Fit Center 4028 is at  -2.930097 -1.411946  0.739930
      ESP Fit Center 4029 is at  -2.873066 -1.817743  0.739930
      ESP Fit Center 4030 is at  -2.760114 -2.211653  0.739930
      ESP Fit Center 4031 is at  -2.593440 -2.586010  0.739930
      ESP Fit Center 4032 is at  -2.376287 -2.933528  0.739930
      ESP Fit Center 4033 is at  -2.112882 -3.247441  0.739930
      ESP Fit Center 4034 is at  -1.808353 -3.521640  0.739930
      ESP Fit Center 4035 is at  -1.468626 -3.750789  0.739930
      ESP Fit Center 4036 is at   1.287607 -3.847039  0.739930
      ESP Fit Center 4037 is at   1.642491 -3.642146  0.739930
      ESP Fit Center 4038 is at   1.965405 -3.389858  0.739930
      ESP Fit Center 4039 is at   2.250066 -3.095083  0.739930
      ESP Fit Center 4040 is at   2.490931 -2.763561  0.739930
      ESP Fit Center 4041 is at   2.683313 -2.401742  0.739930
      ESP Fit Center 4042 is at   2.823468 -2.016670  0.739930
      ESP Fit Center 4043 is at   2.908667 -1.615841  0.739930
      ESP Fit Center 4044 is at   2.937252 -0.000000  2.673658
      ESP Fit Center 4045 is at   2.908667  0.408787  2.673658
      ESP Fit Center 4046 is at   2.823468  0.809616  2.673658
      ESP Fit Center 4047 is at  -2.760114  1.004599  2.673658
      ESP Fit Center 4048 is at  -2.873066  0.610689  2.673658
      ESP Fit Center 4049 is at  -2.930097  0.204892  2.673658
      ESP Fit Center 4050 is at  -2.930097 -0.204892  2.673658
      ESP Fit Center 4051 is at  -2.873066 -0.610689  2.673658
      ESP Fit Center 4052 is at  -2.760114 -1.004599  2.673658
      ESP Fit Center 4053 is at   2.823468 -0.809616  2.673658
      ESP Fit Center 4054 is at   2.908667 -0.408787  2.673658
      ESP Fit Center 4055 is at   2.993006 -0.000000  2.268017
      ESP Fit Center 4056 is at   2.963879  0.416546  2.268017
      ESP Fit Center 4057 is at   2.877062  0.824984  2.268017
      ESP Fit Center 4058 is at  -2.927602  0.622281  2.268017
      ESP Fit Center 4059 is at  -2.985715  0.208782  2.268017
      ESP Fit Center 4060 is at  -2.985715 -0.208782  2.268017
      ESP Fit Center 4061 is at  -2.927602 -0.622281  2.268017
      ESP Fit Center 4062 is at   2.877062 -0.824984  2.268017
      ESP Fit Center 4063 is at   2.963879 -0.416546  2.268017
      ESP Fit Center 4064 is at   2.993006 -0.000000  1.858563
      ESP Fit Center 4065 is at   2.963879  0.416546  1.858563
      ESP Fit Center 4066 is at  -2.927602  0.622281  1.858563
      ESP Fit Center 4067 is at  -2.985715  0.208782  1.858563
      ESP Fit Center 4068 is at  -2.985715 -0.208782  1.858563
      ESP Fit Center 4069 is at  -2.927602 -0.622281  1.858563
      ESP Fit Center 4070 is at   2.963879 -0.416546  1.858563
      ESP Fit Center 4071 is at   2.937252 -0.000000  1.452922
      ESP Fit Center 4072 is at   2.908667  0.408787  1.452922
      ESP Fit Center 4073 is at  -2.930097  0.204892  1.452922
      ESP Fit Center 4074 is at  -2.930097 -0.204892  1.452922
      ESP Fit Center 4075 is at   2.908667 -0.408787  1.452922
      ESP Fit Center 4076 is at   2.826783 -0.000000  1.058651
      ESP Fit Center 4077 is at  -2.819242  0.206342  1.058651
      ESP Fit Center 4078 is at  -2.819242 -0.206342  1.058651
      ESP Fit Center 4079 is at   2.663656  0.000000  0.669788
      ESP Fit Center 4080 is at  -2.663656  0.000000  0.669788
      ESP Fit Center 4081 is at   2.826783  0.000000  0.294232
      ESP Fit Center 4082 is at  -2.819242  0.206342  0.294232
      ESP Fit Center 4083 is at  -2.819242 -0.206342  0.294232
      ESP Fit Center 4084 is at   2.937252  0.000000 -0.100039
      ESP Fit Center 4085 is at   2.908667  0.408787 -0.100039
      ESP Fit Center 4086 is at  -2.930097  0.204892 -0.100039
      ESP Fit Center 4087 is at  -2.930097 -0.204892 -0.100039
      ESP Fit Center 4088 is at   2.908667 -0.408787 -0.100039
      ESP Fit Center 4089 is at   2.993006  0.000000 -0.505680
      ESP Fit Center 4090 is at   2.963879  0.416546 -0.505680
      ESP Fit Center 4091 is at  -2.927602  0.622281 -0.505680
      ESP Fit Center 4092 is at  -2.985715  0.208782 -0.505680
      ESP Fit Center 4093 is at  -2.985715 -0.208782 -0.505680
      ESP Fit Center 4094 is at  -2.927602 -0.622281 -0.505680
      ESP Fit Center 4095 is at   2.963879 -0.416546 -0.505680
      ESP Fit Center 4096 is at   2.993006  0.000000 -0.915134
      ESP Fit Center 4097 is at   2.963879  0.416546 -0.915134
      ESP Fit Center 4098 is at   2.877062  0.824984 -0.915134
      ESP Fit Center 4099 is at  -2.927602  0.622281 -0.915134
      ESP Fit Center 4100 is at  -2.985715  0.208782 -0.915134
      ESP Fit Center 4101 is at  -2.985715 -0.208782 -0.915134
      ESP Fit Center 4102 is at  -2.927602 -0.622281 -0.915134
      ESP Fit Center 4103 is at   2.877062 -0.824984 -0.915134
      ESP Fit Center 4104 is at   2.963879 -0.416546 -0.915134
      ESP Fit Center 4105 is at   2.937252  0.000000 -1.320775
      ESP Fit Center 4106 is at   2.908667  0.408787 -1.320775
      ESP Fit Center 4107 is at   2.823468  0.809616 -1.320775
      ESP Fit Center 4108 is at  -2.760114  1.004599 -1.320775
      ESP Fit Center 4109 is at  -2.873066  0.610689 -1.320775
      ESP Fit Center 4110 is at  -2.930097  0.204892 -1.320775
      ESP Fit Center 4111 is at  -2.930097 -0.204892 -1.320775
      ESP Fit Center 4112 is at  -2.873066 -0.610689 -1.320775
      ESP Fit Center 4113 is at  -2.760114 -1.004599 -1.320775
      ESP Fit Center 4114 is at   2.823468 -0.809616 -1.320775
      ESP Fit Center 4115 is at   2.908667 -0.408787 -1.320775
      ESP Fit Center 4116 is at   0.721860  4.076187  0.629641
      ESP Fit Center 4117 is at   0.314737  4.181599  0.629641
      ESP Fit Center 4118 is at  -0.105272  4.202899  0.629641
      ESP Fit Center 4119 is at  -0.520972  4.139217  0.629641
      ESP Fit Center 4120 is at  -0.915342  3.993158  0.629641
      ESP Fit Center 4121 is at   1.308180  3.964188  0.250489
      ESP Fit Center 4122 is at   0.936870  4.178565  0.250489
      ESP Fit Center 4123 is at   0.531698  4.318796  0.250489
      ESP Fit Center 4124 is at   0.107310  4.379814  0.250489
      ESP Fit Center 4125 is at  -0.320957  4.359413  0.250489
      ESP Fit Center 4126 is at  -0.737624  4.258331  0.250489
      ESP Fit Center 4127 is at  -1.127631  4.080220  0.250489
      ESP Fit Center 4128 is at  -1.476883  3.831520  0.250489
      ESP Fit Center 4129 is at   1.779913  3.682170 -0.153603
      ESP Fit Center 4130 is at   1.473642  3.974995 -0.153603
      ESP Fit Center 4131 is at   1.120007  4.208428 -0.153603
      ESP Fit Center 4132 is at   0.730374  4.374965 -0.153603
      ESP Fit Center 4133 is at   0.317266  4.469254 -0.153603
      ESP Fit Center 4134 is at  -0.106040  4.488265 -0.153603
      ESP Fit Center 4135 is at  -0.525937  4.431386 -0.153603
      ESP Fit Center 4136 is at  -0.928930  4.300445 -0.153603
      ESP Fit Center 4137 is at  -1.302066  4.099652 -0.153603
      ESP Fit Center 4138 is at  -1.633353  3.835460 -0.153603
      ESP Fit Center 4139 is at  -1.912143  3.516359 -0.153603
      ESP Fit Center 4140 is at   2.078461  3.327106 -0.570359
      ESP Fit Center 4141 is at   1.838507  3.669796 -0.570359
      ESP Fit Center 4142 is at   1.542690  3.965613 -0.570359
      ESP Fit Center 4143 is at   1.200000  4.205567 -0.570359
      ESP Fit Center 4144 is at   0.820848  4.382368 -0.570359
      ESP Fit Center 4145 is at   0.416756  4.490645 -0.570359
      ESP Fit Center 4146 is at   0.000000  4.527106 -0.570359
      ESP Fit Center 4147 is at  -0.416756  4.490645 -0.570359
      ESP Fit Center 4148 is at  -0.820848  4.382368 -0.570359
      ESP Fit Center 4149 is at  -1.200000  4.205567 -0.570359
      ESP Fit Center 4150 is at  -1.542690  3.965613 -0.570359
      ESP Fit Center 4151 is at  -1.838507  3.669796 -0.570359
      ESP Fit Center 4152 is at  -2.078461  3.327106 -0.570359
      ESP Fit Center 4153 is at   2.028977  3.339363 -0.987115
      ESP Fit Center 4154 is at   1.779913  3.682170 -0.987115
      ESP Fit Center 4155 is at   1.473642  3.974995 -0.987115
      ESP Fit Center 4156 is at   1.120007  4.208428 -0.987115
      ESP Fit Center 4157 is at   0.730374  4.374965 -0.987115
      ESP Fit Center 4158 is at   0.317266  4.469254 -0.987115
      ESP Fit Center 4159 is at  -0.106040  4.488265 -0.987115
      ESP Fit Center 4160 is at  -0.525937  4.431386 -0.987115
      ESP Fit Center 4161 is at  -0.928930  4.300445 -0.987115
      ESP Fit Center 4162 is at  -1.302066  4.099652 -0.987115
      ESP Fit Center 4163 is at  -1.633353  3.835460 -0.987115
      ESP Fit Center 4164 is at  -1.912143  3.516359 -0.987115
      ESP Fit Center 4165 is at  -2.129475  3.152607 -0.987115
      ESP Fit Center 4166 is at   2.093713  2.965302 -1.391207
      ESP Fit Center 4167 is at   1.897247  3.346393 -1.391207
      ESP Fit Center 4168 is at   1.632210  3.683415 -1.391207
      ESP Fit Center 4169 is at   1.308180  3.964188 -1.391207
      ESP Fit Center 4170 is at   0.936870  4.178565 -1.391207
      ESP Fit Center 4171 is at   0.531698  4.318796 -1.391207
      ESP Fit Center 4172 is at   0.107310  4.379814 -1.391207
      ESP Fit Center 4173 is at  -0.320957  4.359413 -1.391207
      ESP Fit Center 4174 is at  -0.737624  4.258331 -1.391207
      ESP Fit Center 4175 is at  -1.127631  4.080220 -1.391207
      ESP Fit Center 4176 is at  -1.476883  3.831520 -1.391207
      ESP Fit Center 4177 is at  -1.772756  3.521217 -1.391207
      ESP Fit Center 4178 is at  -2.004557  3.160527 -1.391207
      ESP Fit Center 4179 is at   1.910018  2.946759 -1.770359
      ESP Fit Center 4180 is at   1.705925  3.314465 -1.770359
      ESP Fit Center 4181 is at   1.431991  3.633560 -1.770359
      ESP Fit Center 4182 is at   1.099431  3.890980 -1.770359
      ESP Fit Center 4183 is at   0.721860  4.076187 -1.770359
      ESP Fit Center 4184 is at   0.314737  4.181599 -1.770359
      ESP Fit Center 4185 is at  -0.105272  4.202899 -1.770359
      ESP Fit Center 4186 is at  -0.520972  4.139217 -1.770359
      ESP Fit Center 4187 is at  -0.915342  3.993158 -1.770359
      ESP Fit Center 4188 is at  -1.272238  3.770703 -1.770359
      ESP Fit Center 4189 is at  -1.577049  3.480958 -1.770359
      ESP Fit Center 4190 is at  -1.817295  3.135787 -1.770359
      ESP Fit Center 4191 is at   1.097880  3.601815 -2.113049
      ESP Fit Center 4192 is at   0.728195  3.815252 -2.113049
      ESP Fit Center 4193 is at   0.319253  3.937682 -2.113049
      ESP Fit Center 4194 is at  -0.106900  3.962502 -2.113049
      ESP Fit Center 4195 is at  -0.527290  3.888376 -2.113049
      ESP Fit Center 4196 is at  -0.919253  3.719299 -2.113049
      ESP Fit Center 4197 is at  -0.915342 -3.993158  0.629641
      ESP Fit Center 4198 is at  -0.520972 -4.139217  0.629641
      ESP Fit Center 4199 is at  -0.105272 -4.202899  0.629641
      ESP Fit Center 4200 is at   0.314737 -4.181599  0.629641
      ESP Fit Center 4201 is at   0.721860 -4.076187  0.629641
      ESP Fit Center 4202 is at  -1.476883 -3.831520  0.250489
      ESP Fit Center 4203 is at  -1.127631 -4.080220  0.250489
      ESP Fit Center 4204 is at  -0.737624 -4.258331  0.250489
      ESP Fit Center 4205 is at  -0.320957 -4.359413  0.250489
      ESP Fit Center 4206 is at   0.107310 -4.379814  0.250489
      ESP Fit Center 4207 is at   0.531698 -4.318796  0.250489
      ESP Fit Center 4208 is at   0.936870 -4.178565  0.250489
      ESP Fit Center 4209 is at   1.308180 -3.964188  0.250489
      ESP Fit Center 4210 is at  -1.912143 -3.516359 -0.153603
      ESP Fit Center 4211 is at  -1.633353 -3.835460 -0.153603
      ESP Fit Center 4212 is at  -1.302066 -4.099652 -0.153603
      ESP Fit Center 4213 is at  -0.928930 -4.300445 -0.153603
      ESP Fit Center 4214 is at  -0.525937 -4.431386 -0.153603
      ESP Fit Center 4215 is at  -0.106040 -4.488265 -0.153603
      ESP Fit Center 4216 is at   0.317266 -4.469254 -0.153603
      ESP Fit Center 4217 is at   0.730374 -4.374965 -0.153603
      ESP Fit Center 4218 is at   1.120007 -4.208428 -0.153603
      ESP Fit Center 4219 is at   1.473642 -3.974995 -0.153603
      ESP Fit Center 4220 is at   1.779913 -3.682170 -0.153603
      ESP Fit Center 4221 is at  -2.078461 -3.327106 -0.570359
      ESP Fit Center 4222 is at  -1.838507 -3.669796 -0.570359
      ESP Fit Center 4223 is at  -1.542690 -3.965613 -0.570359
      ESP Fit Center 4224 is at  -1.200000 -4.205567 -0.570359
      ESP Fit Center 4225 is at  -0.820848 -4.382368 -0.570359
      ESP Fit Center 4226 is at  -0.416756 -4.490645 -0.570359
      ESP Fit Center 4227 is at  -0.000000 -4.527106 -0.570359
      ESP Fit Center 4228 is at   0.416756 -4.490645 -0.570359
      ESP Fit Center 4229 is at   0.820848 -4.382368 -0.570359
      ESP Fit Center 4230 is at   1.200000 -4.205567 -0.570359
      ESP Fit Center 4231 is at   1.542690 -3.965613 -0.570359
      ESP Fit Center 4232 is at   1.838507 -3.669796 -0.570359
      ESP Fit Center 4233 is at   2.078461 -3.327106 -0.570359
      ESP Fit Center 4234 is at  -2.129475 -3.152607 -0.987115
      ESP Fit Center 4235 is at  -1.912143 -3.516359 -0.987115
      ESP Fit Center 4236 is at  -1.633353 -3.835460 -0.987115
      ESP Fit Center 4237 is at  -1.302066 -4.099652 -0.987115
      ESP Fit Center 4238 is at  -0.928930 -4.300445 -0.987115
      ESP Fit Center 4239 is at  -0.525937 -4.431386 -0.987115
      ESP Fit Center 4240 is at  -0.106040 -4.488265 -0.987115
      ESP Fit Center 4241 is at   0.317266 -4.469254 -0.987115
      ESP Fit Center 4242 is at   0.730374 -4.374965 -0.987115
      ESP Fit Center 4243 is at   1.120007 -4.208428 -0.987115
      ESP Fit Center 4244 is at   1.473642 -3.974995 -0.987115
      ESP Fit Center 4245 is at   1.779913 -3.682170 -0.987115
      ESP Fit Center 4246 is at   2.028977 -3.339363 -0.987115
      ESP Fit Center 4247 is at  -2.004557 -3.160527 -1.391207
      ESP Fit Center 4248 is at  -1.772756 -3.521217 -1.391207
      ESP Fit Center 4249 is at  -1.476883 -3.831520 -1.391207
      ESP Fit Center 4250 is at  -1.127631 -4.080220 -1.391207
      ESP Fit Center 4251 is at  -0.737624 -4.258331 -1.391207
      ESP Fit Center 4252 is at  -0.320957 -4.359413 -1.391207
      ESP Fit Center 4253 is at   0.107310 -4.379814 -1.391207
      ESP Fit Center 4254 is at   0.531698 -4.318796 -1.391207
      ESP Fit Center 4255 is at   0.936870 -4.178565 -1.391207
      ESP Fit Center 4256 is at   1.308180 -3.964188 -1.391207
      ESP Fit Center 4257 is at   1.632210 -3.683415 -1.391207
      ESP Fit Center 4258 is at   1.897247 -3.346393 -1.391207
      ESP Fit Center 4259 is at   2.093713 -2.965302 -1.391207
      ESP Fit Center 4260 is at  -1.817295 -3.135787 -1.770359
      ESP Fit Center 4261 is at  -1.577049 -3.480958 -1.770359
      ESP Fit Center 4262 is at  -1.272238 -3.770703 -1.770359
      ESP Fit Center 4263 is at  -0.915342 -3.993158 -1.770359
      ESP Fit Center 4264 is at  -0.520972 -4.139217 -1.770359
      ESP Fit Center 4265 is at  -0.105272 -4.202899 -1.770359
      ESP Fit Center 4266 is at   0.314737 -4.181599 -1.770359
      ESP Fit Center 4267 is at   0.721860 -4.076187 -1.770359
      ESP Fit Center 4268 is at   1.099431 -3.890980 -1.770359
      ESP Fit Center 4269 is at   1.431991 -3.633560 -1.770359
      ESP Fit Center 4270 is at   1.705925 -3.314465 -1.770359
      ESP Fit Center 4271 is at   1.910018 -2.946759 -1.770359
      ESP Fit Center 4272 is at  -0.919253 -3.719299 -2.113049
      ESP Fit Center 4273 is at  -0.527290 -3.888376 -2.113049
      ESP Fit Center 4274 is at  -0.106900 -3.962502 -2.113049
      ESP Fit Center 4275 is at   0.319253 -3.937682 -2.113049
      ESP Fit Center 4276 is at   0.728195 -3.815252 -2.113049
      ESP Fit Center 4277 is at   1.097880 -3.601815 -2.113049
      ESP Fit Center 4278 is at   0.600000  3.179619  3.962430
      ESP Fit Center 4279 is at   0.208378  3.322158  3.962430
      ESP Fit Center 4280 is at  -0.208378  3.322158  3.962430
      ESP Fit Center 4281 is at  -0.600000  3.179619  3.962430
      ESP Fit Center 4282 is at   1.318104  2.941946  3.722476
      ESP Fit Center 4283 is at   1.052968  3.267843  3.722476
      ESP Fit Center 4284 is at   0.709738  3.510121  3.722476
      ESP Fit Center 4285 is at   0.313870  3.650812  3.722476
      ESP Fit Center 4286 is at  -0.105277  3.679483  3.722476
      ESP Fit Center 4287 is at  -0.516616  3.594006  3.722476
      ESP Fit Center 4288 is at  -0.889639  3.400720  3.722476
      ESP Fit Center 4289 is at  -1.196682  3.113962  3.722476
      ESP Fit Center 4290 is at   1.788949  2.564378  3.426659
      ESP Fit Center 4291 is at   1.642950  2.965509  3.426659
      ESP Fit Center 4292 is at   1.408378  3.322158  3.426659
      ESP Fit Center 4293 is at   1.097880  3.615098  3.426659
      ESP Fit Center 4294 is at   0.728195  3.828535  3.426659
      ESP Fit Center 4295 is at   0.319253  3.950965  3.426659
      ESP Fit Center 4296 is at  -0.106900  3.975785  3.426659
      ESP Fit Center 4297 is at  -0.527290  3.901659  3.426659
      ESP Fit Center 4298 is at  -0.919253  3.732582  3.426659
      ESP Fit Center 4299 is at  -1.261660  3.477670  3.426659
      ESP Fit Center 4300 is at  -1.536050  3.150665  3.426659
      ESP Fit Center 4301 is at  -1.727631  2.769195  3.426659
      ESP Fit Center 4302 is at   1.910018  2.960042  3.083969
      ESP Fit Center 4303 is at   1.705925  3.327748  3.083969
      ESP Fit Center 4304 is at   1.431991  3.646843  3.083969
      ESP Fit Center 4305 is at   1.099431  3.904263  3.083969
      ESP Fit Center 4306 is at   0.721860  4.089470  3.083969
      ESP Fit Center 4307 is at   0.314737  4.194882  3.083969
      ESP Fit Center 4308 is at  -0.105272  4.216182  3.083969
      ESP Fit Center 4309 is at  -0.520972  4.152500  3.083969
      ESP Fit Center 4310 is at  -0.915342  4.006441  3.083969
      ESP Fit Center 4311 is at  -1.272238  3.783986  3.083969
      ESP Fit Center 4312 is at  -1.577049  3.494241  3.083969
      ESP Fit Center 4313 is at  -1.817295  3.149070  3.083969
      ESP Fit Center 4314 is at  -1.983141  2.762604  3.083969
      ESP Fit Center 4315 is at   2.093713  2.978585  2.704817
      ESP Fit Center 4316 is at   1.897247  3.359676  2.704817
      ESP Fit Center 4317 is at   1.632210  3.696698  2.704817
      ESP Fit Center 4318 is at   1.308180  3.977471  2.704817
      ESP Fit Center 4319 is at   0.936870  4.191848  2.704817
      ESP Fit Center 4320 is at   0.531698  4.332079  2.704817
      ESP Fit Center 4321 is at   0.107310  4.393097  2.704817
      ESP Fit Center 4322 is at  -0.320957  4.372696  2.704817
      ESP Fit Center 4323 is at  -0.737624  4.271614  2.704817
      ESP Fit Center 4324 is at  -1.127631  4.093503  2.704817
      ESP Fit Center 4325 is at  -1.476883  3.844803  2.704817
      ESP Fit Center 4326 is at  -1.772756  3.534500  2.704817
      ESP Fit Center 4327 is at  -2.004557  3.173810  2.704817
      ESP Fit Center 4328 is at   2.028977  3.352646  2.300725
      ESP Fit Center 4329 is at   1.779913  3.695453  2.300725
      ESP Fit Center 4330 is at   1.473642  3.988278  2.300725
      ESP Fit Center 4331 is at   1.120007  4.221711  2.300725
      ESP Fit Center 4332 is at   0.730374  4.388248  2.300725
      ESP Fit Center 4333 is at   0.317266  4.482537  2.300725
      ESP Fit Center 4334 is at  -0.106040  4.501548  2.300725
      ESP Fit Center 4335 is at  -0.525937  4.444669  2.300725
      ESP Fit Center 4336 is at  -0.928930  4.313728  2.300725
      ESP Fit Center 4337 is at  -1.302066  4.112935  2.300725
      ESP Fit Center 4338 is at  -1.633353  3.848743  2.300725
      ESP Fit Center 4339 is at  -1.912143  3.529642  2.300725
      ESP Fit Center 4340 is at  -2.129475  3.165890  2.300725
      ESP Fit Center 4341 is at   2.078461  3.340389  1.883969
      ESP Fit Center 4342 is at   1.838507  3.683079  1.883969
      ESP Fit Center 4343 is at   1.542690  3.978896  1.883969
      ESP Fit Center 4344 is at   1.200000  4.218850  1.883969
      ESP Fit Center 4345 is at   0.820848  4.395651  1.883969
      ESP Fit Center 4346 is at   0.416756  4.503928  1.883969
      ESP Fit Center 4347 is at   0.000000  4.540389  1.883969
      ESP Fit Center 4348 is at  -0.416756  4.503928  1.883969
      ESP Fit Center 4349 is at  -0.820848  4.395651  1.883969
      ESP Fit Center 4350 is at  -1.200000  4.218850  1.883969
      ESP Fit Center 4351 is at  -1.542690  3.978896  1.883969
      ESP Fit Center 4352 is at  -1.838507  3.683079  1.883969
      ESP Fit Center 4353 is at  -2.078461  3.340389  1.883969
      ESP Fit Center 4354 is at   1.779913  3.695453  1.467213
      ESP Fit Center 4355 is at   1.473642  3.988278  1.467213
      ESP Fit Center 4356 is at   1.120007  4.221711  1.467213
      ESP Fit Center 4357 is at   0.730374  4.388248  1.467213
      ESP Fit Center 4358 is at   0.317266  4.482537  1.467213
      ESP Fit Center 4359 is at  -0.106040  4.501548  1.467213
      ESP Fit Center 4360 is at  -0.525937  4.444669  1.467213
      ESP Fit Center 4361 is at  -0.928930  4.313728  1.467213
      ESP Fit Center 4362 is at  -1.302066  4.112935  1.467213
      ESP Fit Center 4363 is at  -1.633353  3.848743  1.467213
      ESP Fit Center 4364 is at  -1.912143  3.529642  1.467213
      ESP Fit Center 4365 is at   1.308180  3.977471  1.063121
      ESP Fit Center 4366 is at   0.936870  4.191848  1.063121
      ESP Fit Center 4367 is at   0.531698  4.332079  1.063121
      ESP Fit Center 4368 is at   0.107310  4.393097  1.063121
      ESP Fit Center 4369 is at  -0.320957  4.372696  1.063121
      ESP Fit Center 4370 is at  -0.737624  4.271614  1.063121
      ESP Fit Center 4371 is at  -1.127631  4.093503  1.063121
      ESP Fit Center 4372 is at  -1.476883  3.844803  1.063121
      ESP Fit Center 4373 is at   0.721860  4.089470  0.683969
      ESP Fit Center 4374 is at   0.314737  4.194882  0.683969
      ESP Fit Center 4375 is at  -0.105272  4.216182  0.683969
      ESP Fit Center 4376 is at  -0.520972  4.152500  0.683969
      ESP Fit Center 4377 is at  -0.915342  4.006441  0.683969
      ESP Fit Center 4378 is at  -0.600000 -3.179619  3.962430
      ESP Fit Center 4379 is at  -0.208378 -3.322158  3.962430
      ESP Fit Center 4380 is at   0.208378 -3.322158  3.962430
      ESP Fit Center 4381 is at   0.600000 -3.179619  3.962430
      ESP Fit Center 4382 is at  -1.196682 -3.113962  3.722476
      ESP Fit Center 4383 is at  -0.889639 -3.400720  3.722476
      ESP Fit Center 4384 is at  -0.516616 -3.594006  3.722476
      ESP Fit Center 4385 is at  -0.105277 -3.679483  3.722476
      ESP Fit Center 4386 is at   0.313870 -3.650812  3.722476
      ESP Fit Center 4387 is at   0.709738 -3.510121  3.722476
      ESP Fit Center 4388 is at   1.052968 -3.267843  3.722476
      ESP Fit Center 4389 is at   1.318104 -2.941946  3.722476
      ESP Fit Center 4390 is at  -1.727631 -2.769195  3.426659
      ESP Fit Center 4391 is at  -1.536050 -3.150665  3.426659
      ESP Fit Center 4392 is at  -1.261660 -3.477670  3.426659
      ESP Fit Center 4393 is at  -0.919253 -3.732582  3.426659
      ESP Fit Center 4394 is at  -0.527290 -3.901659  3.426659
      ESP Fit Center 4395 is at  -0.106900 -3.975785  3.426659
      ESP Fit Center 4396 is at   0.319253 -3.950965  3.426659
      ESP Fit Center 4397 is at   0.728195 -3.828535  3.426659
      ESP Fit Center 4398 is at   1.097880 -3.615098  3.426659
      ESP Fit Center 4399 is at   1.408378 -3.322158  3.426659
      ESP Fit Center 4400 is at   1.642950 -2.965509  3.426659
      ESP Fit Center 4401 is at   1.788949 -2.564378  3.426659
      ESP Fit Center 4402 is at  -1.983141 -2.762604  3.083969
      ESP Fit Center 4403 is at  -1.817295 -3.149070  3.083969
      ESP Fit Center 4404 is at  -1.577049 -3.494241  3.083969
      ESP Fit Center 4405 is at  -1.272238 -3.783986  3.083969
      ESP Fit Center 4406 is at  -0.915342 -4.006441  3.083969
      ESP Fit Center 4407 is at  -0.520972 -4.152500  3.083969
      ESP Fit Center 4408 is at  -0.105272 -4.216182  3.083969
      ESP Fit Center 4409 is at   0.314737 -4.194882  3.083969
      ESP Fit Center 4410 is at   0.721860 -4.089470  3.083969
      ESP Fit Center 4411 is at   1.099431 -3.904263  3.083969
      ESP Fit Center 4412 is at   1.431991 -3.646843  3.083969
      ESP Fit Center 4413 is at   1.705925 -3.327748  3.083969
      ESP Fit Center 4414 is at   1.910018 -2.960042  3.083969
      ESP Fit Center 4415 is at  -2.004557 -3.173810  2.704817
      ESP Fit Center 4416 is at  -1.772756 -3.534500  2.704817
      ESP Fit Center 4417 is at  -1.476883 -3.844803  2.704817
      ESP Fit Center 4418 is at  -1.127631 -4.093503  2.704817
      ESP Fit Center 4419 is at  -0.737624 -4.271614  2.704817
      ESP Fit Center 4420 is at  -0.320957 -4.372696  2.704817
      ESP Fit Center 4421 is at   0.107310 -4.393097  2.704817
      ESP Fit Center 4422 is at   0.531698 -4.332079  2.704817
      ESP Fit Center 4423 is at   0.936870 -4.191848  2.704817
      ESP Fit Center 4424 is at   1.308180 -3.977471  2.704817
      ESP Fit Center 4425 is at   1.632210 -3.696698  2.704817
      ESP Fit Center 4426 is at   1.897247 -3.359676  2.704817
      ESP Fit Center 4427 is at   2.093713 -2.978585  2.704817
      ESP Fit Center 4428 is at  -2.129475 -3.165890  2.300725
      ESP Fit Center 4429 is at  -1.912143 -3.529642  2.300725
      ESP Fit Center 4430 is at  -1.633353 -3.848743  2.300725
      ESP Fit Center 4431 is at  -1.302066 -4.112935  2.300725
      ESP Fit Center 4432 is at  -0.928930 -4.313728  2.300725
      ESP Fit Center 4433 is at  -0.525937 -4.444669  2.300725
      ESP Fit Center 4434 is at  -0.106040 -4.501548  2.300725
      ESP Fit Center 4435 is at   0.317266 -4.482537  2.300725
      ESP Fit Center 4436 is at   0.730374 -4.388248  2.300725
      ESP Fit Center 4437 is at   1.120007 -4.221711  2.300725
      ESP Fit Center 4438 is at   1.473642 -3.988278  2.300725
      ESP Fit Center 4439 is at   1.779913 -3.695453  2.300725
      ESP Fit Center 4440 is at   2.028977 -3.352646  2.300725
      ESP Fit Center 4441 is at  -2.078461 -3.340389  1.883969
      ESP Fit Center 4442 is at  -1.838507 -3.683079  1.883969
      ESP Fit Center 4443 is at  -1.542690 -3.978896  1.883969
      ESP Fit Center 4444 is at  -1.200000 -4.218850  1.883969
      ESP Fit Center 4445 is at  -0.820848 -4.395651  1.883969
      ESP Fit Center 4446 is at  -0.416756 -4.503928  1.883969
      ESP Fit Center 4447 is at  -0.000000 -4.540389  1.883969
      ESP Fit Center 4448 is at   0.416756 -4.503928  1.883969
      ESP Fit Center 4449 is at   0.820848 -4.395651  1.883969
      ESP Fit Center 4450 is at   1.200000 -4.218850  1.883969
      ESP Fit Center 4451 is at   1.542690 -3.978896  1.883969
      ESP Fit Center 4452 is at   1.838507 -3.683079  1.883969
      ESP Fit Center 4453 is at   2.078461 -3.340389  1.883969
      ESP Fit Center 4454 is at  -1.912143 -3.529642  1.467213
      ESP Fit Center 4455 is at  -1.633353 -3.848743  1.467213
      ESP Fit Center 4456 is at  -1.302066 -4.112935  1.467213
      ESP Fit Center 4457 is at  -0.928930 -4.313728  1.467213
      ESP Fit Center 4458 is at  -0.525937 -4.444669  1.467213
      ESP Fit Center 4459 is at  -0.106040 -4.501548  1.467213
      ESP Fit Center 4460 is at   0.317266 -4.482537  1.467213
      ESP Fit Center 4461 is at   0.730374 -4.388248  1.467213
      ESP Fit Center 4462 is at   1.120007 -4.221711  1.467213
      ESP Fit Center 4463 is at   1.473642 -3.988278  1.467213
      ESP Fit Center 4464 is at   1.779913 -3.695453  1.467213
      ESP Fit Center 4465 is at  -1.476883 -3.844803  1.063121
      ESP Fit Center 4466 is at  -1.127631 -4.093503  1.063121
      ESP Fit Center 4467 is at  -0.737624 -4.271614  1.063121
      ESP Fit Center 4468 is at  -0.320957 -4.372696  1.063121
      ESP Fit Center 4469 is at   0.107310 -4.393097  1.063121
      ESP Fit Center 4470 is at   0.531698 -4.332079  1.063121
      ESP Fit Center 4471 is at   0.936870 -4.191848  1.063121
      ESP Fit Center 4472 is at   1.308180 -3.977471  1.063121
      ESP Fit Center 4473 is at  -0.915342 -4.006441  0.683969
      ESP Fit Center 4474 is at  -0.520972 -4.152500  0.683969
      ESP Fit Center 4475 is at  -0.105272 -4.216182  0.683969
      ESP Fit Center 4476 is at   0.314737 -4.194882  0.683969
      ESP Fit Center 4477 is at   0.721860 -4.089470  0.683969
      ESP Fit Center 4478 is at   2.937252  0.000000 -1.542776
      ESP Fit Center 4479 is at   2.908667  0.408787 -1.542776
      ESP Fit Center 4480 is at   2.823468  0.809616 -1.542776
      ESP Fit Center 4481 is at   2.683313  1.194688 -1.542776
      ESP Fit Center 4482 is at  -2.593440  1.378956 -1.542776
      ESP Fit Center 4483 is at  -2.760114  1.004599 -1.542776
      ESP Fit Center 4484 is at  -2.873066  0.610689 -1.542776
      ESP Fit Center 4485 is at  -2.930097  0.204892 -1.542776
      ESP Fit Center 4486 is at  -2.930097 -0.204892 -1.542776
      ESP Fit Center 4487 is at  -2.873066 -0.610689 -1.542776
      ESP Fit Center 4488 is at  -2.760114 -1.004599 -1.542776
      ESP Fit Center 4489 is at  -2.593440 -1.378956 -1.542776
      ESP Fit Center 4490 is at   2.683313 -1.194688 -1.542776
      ESP Fit Center 4491 is at   2.823468 -0.809616 -1.542776
      ESP Fit Center 4492 is at   2.908667 -0.408787 -1.542776
      ESP Fit Center 4493 is at   2.993006  0.000000 -1.948417
      ESP Fit Center 4494 is at   2.963879  0.416546 -1.948417
      ESP Fit Center 4495 is at   2.877062  0.824984 -1.948417
      ESP Fit Center 4496 is at   2.734247  1.217365 -1.948417
      ESP Fit Center 4497 is at  -2.812506  1.023668 -1.948417
      ESP Fit Center 4498 is at  -2.927602  0.622281 -1.948417
      ESP Fit Center 4499 is at  -2.985715  0.208782 -1.948417
      ESP Fit Center 4500 is at  -2.985715 -0.208782 -1.948417
      ESP Fit Center 4501 is at  -2.927602 -0.622281 -1.948417
      ESP Fit Center 4502 is at  -2.812506 -1.023668 -1.948417
      ESP Fit Center 4503 is at   2.734247 -1.217365 -1.948417
      ESP Fit Center 4504 is at   2.877062 -0.824984 -1.948417
      ESP Fit Center 4505 is at   2.963879 -0.416546 -1.948417
      ESP Fit Center 4506 is at   2.993006  0.000000 -2.357871
      ESP Fit Center 4507 is at   2.963879  0.416546 -2.357871
      ESP Fit Center 4508 is at   2.877062  0.824984 -2.357871
      ESP Fit Center 4509 is at  -2.812506  1.023668 -2.357871
      ESP Fit Center 4510 is at  -2.927602  0.622281 -2.357871
      ESP Fit Center 4511 is at  -2.985715  0.208782 -2.357871
      ESP Fit Center 4512 is at  -2.985715 -0.208782 -2.357871
      ESP Fit Center 4513 is at  -2.927602 -0.622281 -2.357871
      ESP Fit Center 4514 is at  -2.812506 -1.023668 -2.357871
      ESP Fit Center 4515 is at   2.877062 -0.824984 -2.357871
      ESP Fit Center 4516 is at   2.963879 -0.416546 -2.357871
      ESP Fit Center 4517 is at   2.937252  0.000000 -2.763512
      ESP Fit Center 4518 is at   2.908667  0.408787 -2.763512
      ESP Fit Center 4519 is at   2.823468  0.809616 -2.763512
      ESP Fit Center 4520 is at  -2.873066  0.610689 -2.763512
      ESP Fit Center 4521 is at  -2.930097  0.204892 -2.763512
      ESP Fit Center 4522 is at  -2.930097 -0.204892 -2.763512
      ESP Fit Center 4523 is at  -2.873066 -0.610689 -2.763512
      ESP Fit Center 4524 is at   2.823468 -0.809616 -2.763512
      ESP Fit Center 4525 is at   2.908667 -0.408787 -2.763512
      ESP Fit Center 4526 is at   2.826783  0.000000 -3.157783
      ESP Fit Center 4527 is at   2.796659  0.411583 -3.157783
      ESP Fit Center 4528 is at  -2.759154  0.614628 -3.157783
      ESP Fit Center 4529 is at  -2.819242  0.206342 -3.157783
      ESP Fit Center 4530 is at  -2.819242 -0.206342 -3.157783
      ESP Fit Center 4531 is at  -2.759154 -0.614628 -3.157783
      ESP Fit Center 4532 is at   2.796659 -0.411583 -3.157783
      ESP Fit Center 4533 is at   2.663656  0.000000 -3.533339
      ESP Fit Center 4534 is at   2.630862  0.416688 -3.533339
      ESP Fit Center 4535 is at  -2.630862  0.416688 -3.533339
      ESP Fit Center 4536 is at  -2.663656  0.000000 -3.533339
      ESP Fit Center 4537 is at  -2.630862 -0.416688 -3.533339
      ESP Fit Center 4538 is at   2.630862 -0.416688 -3.533339
      ESP Fit Center 4539 is at   2.450910  0.000000 -3.883185
      ESP Fit Center 4540 is at  -2.442080  0.207852 -3.883185
      ESP Fit Center 4541 is at  -2.442080 -0.207852 -3.883185
      ESP Fit Center 4542 is at   2.192508  0.000000 -4.200803
      ESP Fit Center 4543 is at   0.000000 -0.000000  6.422806
      ESP Fit Center 4544 is at   0.408500 -0.000000  6.394864
      ESP Fit Center 4545 is at   0.204250  0.353771  6.394864
      ESP Fit Center 4546 is at  -0.204250  0.353771  6.394864
      ESP Fit Center 4547 is at  -0.408500  0.000000  6.394864
      ESP Fit Center 4548 is at  -0.204250 -0.353771  6.394864
      ESP Fit Center 4549 is at   0.204250 -0.353771  6.394864
      ESP Fit Center 4550 is at   0.809390 -0.000000  6.311558
      ESP Fit Center 4551 is at   0.700953  0.404695  6.311558
      ESP Fit Center 4552 is at   0.404695  0.700953  6.311558
      ESP Fit Center 4553 is at  -0.404695  0.700953  6.311558
      ESP Fit Center 4554 is at  -0.700953  0.404695  6.311558
      ESP Fit Center 4555 is at  -0.809390  0.000000  6.311558
      ESP Fit Center 4556 is at  -0.700953 -0.404695  6.311558
      ESP Fit Center 4557 is at  -0.404695 -0.700953  6.311558
      ESP Fit Center 4558 is at   0.404695 -0.700953  6.311558
      ESP Fit Center 4559 is at   0.700953 -0.404695  6.311558
      ESP Fit Center 4560 is at   1.195203 -0.000000  6.174440
      ESP Fit Center 4561 is at   1.123124  0.408784  6.174440
      ESP Fit Center 4562 is at   0.915579  0.768262  6.174440
      ESP Fit Center 4563 is at  -0.915579  0.768262  6.174440
      ESP Fit Center 4564 is at  -1.123124  0.408784  6.174440
      ESP Fit Center 4565 is at  -1.195203  0.000000  6.174440
      ESP Fit Center 4566 is at  -1.123124 -0.408784  6.174440
      ESP Fit Center 4567 is at  -0.915579 -0.768262  6.174440
      ESP Fit Center 4568 is at   0.915579 -0.768262  6.174440
      ESP Fit Center 4569 is at   1.123124 -0.408784  6.174440
      ESP Fit Center 4570 is at   1.558752 -0.000000  5.986064
      ESP Fit Center 4571 is at   1.500949  0.420546  5.986064
      ESP Fit Center 4572 is at   1.331828  0.809902  5.986064
      ESP Fit Center 4573 is at  -1.429705  0.621008  5.986064
      ESP Fit Center 4574 is at  -1.544234  0.212250  5.986064
      ESP Fit Center 4575 is at  -1.544234 -0.212250  5.986064
      ESP Fit Center 4576 is at  -1.429705 -0.621008  5.986064
      ESP Fit Center 4577 is at   1.331828 -0.809902  5.986064
      ESP Fit Center 4578 is at   1.500949 -0.420546  5.986064
      ESP Fit Center 4579 is at   1.893264 -0.000000  5.749940
      ESP Fit Center 4580 is at   1.849000  0.406996  5.749940
      ESP Fit Center 4581 is at   1.718280  0.794961  5.749940
      ESP Fit Center 4582 is at  -1.622257  0.976079  5.749940
      ESP Fit Center 4583 is at  -1.794157  0.604522  5.749940
      ESP Fit Center 4584 is at  -1.882165  0.204698  5.749940
      ESP Fit Center 4585 is at  -1.882165 -0.204698  5.749940
      ESP Fit Center 4586 is at  -1.794157 -0.604522  5.749940
      ESP Fit Center 4587 is at  -1.622257 -0.976079  5.749940
      ESP Fit Center 4588 is at   1.718280 -0.794961  5.749940
      ESP Fit Center 4589 is at   1.849000 -0.406996  5.749940
      ESP Fit Center 4590 is at   2.192508 -0.000000  5.470465
      ESP Fit Center 4591 is at   2.152886  0.414935  5.470465
      ESP Fit Center 4592 is at   2.035454  0.814873  5.470465
      ESP Fit Center 4593 is at   1.844455  1.185359  5.470465
      ESP Fit Center 4594 is at  -1.948779  1.004665  5.470465
      ESP Fit Center 4595 is at  -2.103696  0.617701  5.470465
      ESP Fit Center 4596 is at  -2.182580  0.208411  5.470465
      ESP Fit Center 4597 is at  -2.182580 -0.208411  5.470465
      ESP Fit Center 4598 is at  -2.103696 -0.617701  5.470465
      ESP Fit Center 4599 is at  -1.948779 -1.004665  5.470465
      ESP Fit Center 4600 is at   1.844455 -1.185359  5.470465
      ESP Fit Center 4601 is at   2.035454 -0.814873  5.470465
      ESP Fit Center 4602 is at   2.152886 -0.414935  5.470465
      ESP Fit Center 4603 is at   2.450910 -0.000000  5.152847
      ESP Fit Center 4604 is at   2.415656  0.414206  5.152847
      ESP Fit Center 4605 is at   2.310907  0.816496  5.152847
      ESP Fit Center 4606 is at   2.139679  1.195296  5.152847
      ESP Fit Center 4607 is at  -2.030602  1.372448  5.152847
      ESP Fit Center 4608 is at  -2.233339  1.009533  5.152847
      ESP Fit Center 4609 is at  -2.371826  0.617575  5.152847
      ESP Fit Center 4610 is at  -2.442080  0.207852  5.152847
      ESP Fit Center 4611 is at  -2.442080 -0.207852  5.152847
      ESP Fit Center 4612 is at  -2.371826 -0.617575  5.152847
      ESP Fit Center 4613 is at  -2.233339 -1.009533  5.152847
      ESP Fit Center 4614 is at  -2.030602 -1.372448  5.152847
      ESP Fit Center 4615 is at   2.139679 -1.195296  5.152847
      ESP Fit Center 4616 is at   2.310907 -0.816496  5.152847
      ESP Fit Center 4617 is at   2.415656 -0.414206  5.152847
      ESP Fit Center 4618 is at   2.663656 -0.000000  4.803001
      ESP Fit Center 4619 is at   2.630862  0.416688  4.803001
      ESP Fit Center 4620 is at   2.533287  0.823115  4.803001
      ESP Fit Center 4621 is at   2.373335  1.209274  4.803001
      ESP Fit Center 4622 is at   2.154943  1.565658  4.803001
      ESP Fit Center 4623 is at  -2.154943  1.565658  4.803001
      ESP Fit Center 4624 is at  -2.373335  1.209274  4.803001
      ESP Fit Center 4625 is at  -2.533287  0.823115  4.803001
      ESP Fit Center 4626 is at  -2.630862  0.416688  4.803001
      ESP Fit Center 4627 is at  -2.663656  0.000000  4.803001
      ESP Fit Center 4628 is at  -2.630862 -0.416688  4.803001
      ESP Fit Center 4629 is at  -2.533287 -0.823115  4.803001
      ESP Fit Center 4630 is at  -2.373335 -1.209274  4.803001
      ESP Fit Center 4631 is at  -2.154943 -1.565658  4.803001
      ESP Fit Center 4632 is at   2.154943 -1.565658  4.803001
      ESP Fit Center 4633 is at   2.373335 -1.209274  4.803001
      ESP Fit Center 4634 is at   2.533287 -0.823115  4.803001
      ESP Fit Center 4635 is at   2.630862 -0.416688  4.803001
      ESP Fit Center 4636 is at   2.826783 -0.000000  4.427445
      ESP Fit Center 4637 is at   2.796659  0.411583  4.427445
      ESP Fit Center 4638 is at   2.706929  0.814394  4.427445
      ESP Fit Center 4639 is at   2.559505  1.199847  4.427445
      ESP Fit Center 4640 is at   2.357531  1.559728  4.427445
      ESP Fit Center 4641 is at  -2.237389  1.727655  4.427445
      ESP Fit Center 4642 is at  -2.465094  1.383478  4.427445
      ESP Fit Center 4643 is at  -2.640261  1.009814  4.427445
      ESP Fit Center 4644 is at  -2.759154  0.614628  4.427445
      ESP Fit Center 4645 is at  -2.819242  0.206342  4.427445
      ESP Fit Center 4646 is at  -2.819242 -0.206342  4.427445
      ESP Fit Center 4647 is at  -2.759154 -0.614628  4.427445
      ESP Fit Center 4648 is at  -2.640261 -1.009814  4.427445
      ESP Fit Center 4649 is at  -2.465094 -1.383478  4.427445
      ESP Fit Center 4650 is at  -2.237389 -1.727655  4.427445
      ESP Fit Center 4651 is at   2.357531 -1.559728  4.427445
      ESP Fit Center 4652 is at   2.559505 -1.199847  4.427445
      ESP Fit Center 4653 is at   2.706929 -0.814394  4.427445
      ESP Fit Center 4654 is at   2.796659 -0.411583  4.427445
      ESP Fit Center 4655 is at   2.937252 -0.000000  4.033174
      ESP Fit Center 4656 is at   2.908667  0.408787  4.033174
      ESP Fit Center 4657 is at   2.823468  0.809616  4.033174
      ESP Fit Center 4658 is at   2.683313  1.194688  4.033174
      ESP Fit Center 4659 is at   2.490931  1.556507  4.033174
      ESP Fit Center 4660 is at   2.250066  1.888029  4.033174
      ESP Fit Center 4661 is at  -2.112882  2.040387  4.033174
      ESP Fit Center 4662 is at  -2.376287  1.726474  4.033174
      ESP Fit Center 4663 is at  -2.593440  1.378956  4.033174
      ESP Fit Center 4664 is at  -2.760114  1.004599  4.033174
      ESP Fit Center 4665 is at  -2.873066  0.610689  4.033174
      ESP Fit Center 4666 is at  -2.930097  0.204892  4.033174
      ESP Fit Center 4667 is at  -2.930097 -0.204892  4.033174
      ESP Fit Center 4668 is at  -2.873066 -0.610689  4.033174
      ESP Fit Center 4669 is at  -2.760114 -1.004599  4.033174
      ESP Fit Center 4670 is at  -2.593440 -1.378956  4.033174
      ESP Fit Center 4671 is at  -2.376287 -1.726474  4.033174
      ESP Fit Center 4672 is at  -2.112882 -2.040387  4.033174
      ESP Fit Center 4673 is at   2.250066 -1.888029  4.033174
      ESP Fit Center 4674 is at   2.490931 -1.556507  4.033174
      ESP Fit Center 4675 is at   2.683313 -1.194688  4.033174
      ESP Fit Center 4676 is at   2.823468 -0.809616  4.033174
      ESP Fit Center 4677 is at   2.908667 -0.408787  4.033174
      ESP Fit Center 4678 is at   2.993006 -0.000000  3.627533
      ESP Fit Center 4679 is at   2.963879  0.416546  3.627533
      ESP Fit Center 4680 is at   2.877062  0.824984  3.627533
      ESP Fit Center 4681 is at   2.734247  1.217365  3.627533
      ESP Fit Center 4682 is at   2.538213  1.586052  3.627533
      ESP Fit Center 4683 is at   2.292776  1.923867  3.627533
      ESP Fit Center 4684 is at   2.002712  2.224237  3.627533
      ESP Fit Center 4685 is at  -1.842679  2.358521  3.627533
      ESP Fit Center 4686 is at  -2.152989  2.079117  3.627533
      ESP Fit Center 4687 is at  -2.421393  1.759245  3.627533
      ESP Fit Center 4688 is at  -2.642668  1.405131  3.627533
      ESP Fit Center 4689 is at  -2.812506  1.023668  3.627533
      ESP Fit Center 4690 is at  -2.927602  0.622281  3.627533
      ESP Fit Center 4691 is at  -2.985715  0.208782  3.627533
      ESP Fit Center 4692 is at  -2.985715 -0.208782  3.627533
      ESP Fit Center 4693 is at  -2.927602 -0.622281  3.627533
      ESP Fit Center 4694 is at  -2.812506 -1.023668  3.627533
      ESP Fit Center 4695 is at  -2.642668 -1.405131  3.627533
      ESP Fit Center 4696 is at  -2.421393 -1.759245  3.627533
      ESP Fit Center 4697 is at  -2.152989 -2.079117  3.627533
      ESP Fit Center 4698 is at  -1.842679 -2.358521  3.627533
      ESP Fit Center 4699 is at   2.002712 -2.224237  3.627533
      ESP Fit Center 4700 is at   2.292776 -1.923867  3.627533
      ESP Fit Center 4701 is at   2.538213 -1.586052  3.627533
      ESP Fit Center 4702 is at   2.734247 -1.217365  3.627533
      ESP Fit Center 4703 is at   2.877062 -0.824984  3.627533
      ESP Fit Center 4704 is at   2.963879 -0.416546  3.627533
      ESP Fit Center 4705 is at   2.993006 -0.000000  3.218079
      ESP Fit Center 4706 is at   2.963879  0.416546  3.218079
      ESP Fit Center 4707 is at   2.877062  0.824984  3.218079
      ESP Fit Center 4708 is at   2.734247  1.217365  3.218079
      ESP Fit Center 4709 is at   2.538213  1.586052  3.218079
      ESP Fit Center 4710 is at   2.292776  1.923867  3.218079
      ESP Fit Center 4711 is at  -2.421393  1.759245  3.218079
      ESP Fit Center 4712 is at  -2.642668  1.405131  3.218079
      ESP Fit Center 4713 is at  -2.812506  1.023668  3.218079
      ESP Fit Center 4714 is at  -2.927602  0.622281  3.218079
      ESP Fit Center 4715 is at  -2.985715  0.208782  3.218079
      ESP Fit Center 4716 is at  -2.985715 -0.208782  3.218079
      ESP Fit Center 4717 is at  -2.927602 -0.622281  3.218079
      ESP Fit Center 4718 is at  -2.812506 -1.023668  3.218079
      ESP Fit Center 4719 is at  -2.642668 -1.405131  3.218079
      ESP Fit Center 4720 is at  -2.421393 -1.759245  3.218079
      ESP Fit Center 4721 is at   2.292776 -1.923867  3.218079
      ESP Fit Center 4722 is at   2.538213 -1.586052  3.218079
      ESP Fit Center 4723 is at   2.734247 -1.217365  3.218079
      ESP Fit Center 4724 is at   2.877062 -0.824984  3.218079
      ESP Fit Center 4725 is at   2.963879 -0.416546  3.218079
      ESP Fit Center 4726 is at   2.937252 -0.000000  2.812438
      ESP Fit Center 4727 is at   2.908667  0.408787  2.812438
      ESP Fit Center 4728 is at   2.823468  0.809616  2.812438
      ESP Fit Center 4729 is at   2.683313  1.194688  2.812438
      ESP Fit Center 4730 is at  -2.760114  1.004599  2.812438
      ESP Fit Center 4731 is at  -2.873066  0.610689  2.812438
      ESP Fit Center 4732 is at  -2.930097  0.204892  2.812438
      ESP Fit Center 4733 is at  -2.930097 -0.204892  2.812438
      ESP Fit Center 4734 is at  -2.873066 -0.610689  2.812438
      ESP Fit Center 4735 is at  -2.760114 -1.004599  2.812438
      ESP Fit Center 4736 is at   2.683313 -1.194688  2.812438
      ESP Fit Center 4737 is at   2.823468 -0.809616  2.812438
      ESP Fit Center 4738 is at   2.908667 -0.408787  2.812438
      ESP Fit Center 4739 is at  -0.000000  0.848501  6.336990
      ESP Fit Center 4740 is at   0.416756  0.848501  6.300529
      ESP Fit Center 4741 is at   0.208378  1.209422  6.300529
      ESP Fit Center 4742 is at  -0.208378  1.209422  6.300529
      ESP Fit Center 4743 is at  -0.416756  0.848501  6.300529
      ESP Fit Center 4744 is at   0.820848  0.848501  6.192252
      ESP Fit Center 4745 is at   0.710876  1.258925  6.192252
      ESP Fit Center 4746 is at   0.410424  1.559377  6.192252
      ESP Fit Center 4747 is at   0.000000  1.669349  6.192252
      ESP Fit Center 4748 is at  -0.410424  1.559377  6.192252
      ESP Fit Center 4749 is at  -0.710876  1.258925  6.192252
      ESP Fit Center 4750 is at  -0.820848  0.848501  6.192252
      ESP Fit Center 4751 is at   1.127631  1.258925  6.015451
      ESP Fit Center 4752 is at   0.919253  1.619846  6.015451
      ESP Fit Center 4753 is at   0.600000  1.887731  6.015451
      ESP Fit Center 4754 is at   0.208378  2.030270  6.015451
      ESP Fit Center 4755 is at  -0.208378  2.030270  6.015451
      ESP Fit Center 4756 is at  -0.600000  1.887731  6.015451
      ESP Fit Center 4757 is at  -0.919253  1.619846  6.015451
      ESP Fit Center 4758 is at  -1.127631  1.258925  6.015451
      ESP Fit Center 4759 is at   1.485483  1.264714  5.775497
      ESP Fit Center 4760 is at   1.318104  1.650058  5.775497
      ESP Fit Center 4761 is at   1.052968  1.975955  5.775497
      ESP Fit Center 4762 is at   0.709738  2.218233  5.775497
      ESP Fit Center 4763 is at   0.313870  2.358924  5.775497
      ESP Fit Center 4764 is at  -0.105277  2.387595  5.775497
      ESP Fit Center 4765 is at  -0.516616  2.302118  5.775497
      ESP Fit Center 4766 is at  -0.889639  2.108832  5.775497
      ESP Fit Center 4767 is at  -1.196682  1.822074  5.775497
      ESP Fit Center 4768 is at  -1.414973  1.463110  5.775497
      ESP Fit Center 4769 is at   1.788949  1.272490  5.479680
      ESP Fit Center 4770 is at   1.642950  1.673621  5.479680
      ESP Fit Center 4771 is at   1.408378  2.030270  5.479680
      ESP Fit Center 4772 is at   1.097880  2.323210  5.479680
      ESP Fit Center 4773 is at   0.728195  2.536647  5.479680
      ESP Fit Center 4774 is at   0.319253  2.659077  5.479680
      ESP Fit Center 4775 is at  -0.106900  2.683897  5.479680
      ESP Fit Center 4776 is at  -0.527290  2.609771  5.479680
      ESP Fit Center 4777 is at  -0.919253  2.440694  5.479680
      ESP Fit Center 4778 is at  -1.261660  2.185782  5.479680
      ESP Fit Center 4779 is at  -1.536050  1.858777  5.479680
      ESP Fit Center 4780 is at  -1.727631  1.477307  5.479680
      ESP Fit Center 4781 is at   1.910018  1.668154  5.136990
      ESP Fit Center 4782 is at   1.705925  2.035860  5.136990
      ESP Fit Center 4783 is at   1.431991  2.354955  5.136990
      ESP Fit Center 4784 is at   1.099431  2.612375  5.136990
      ESP Fit Center 4785 is at   0.721860  2.797582  5.136990
      ESP Fit Center 4786 is at   0.314737  2.902994  5.136990
      ESP Fit Center 4787 is at  -0.105272  2.924294  5.136990
      ESP Fit Center 4788 is at  -0.520972  2.860612  5.136990
      ESP Fit Center 4789 is at  -0.915342  2.714553  5.136990
      ESP Fit Center 4790 is at  -1.272238  2.492098  5.136990
      ESP Fit Center 4791 is at  -1.577049  2.202353  5.136990
      ESP Fit Center 4792 is at  -1.817295  1.857182  5.136990
      ESP Fit Center 4793 is at  -1.983141  1.470716  5.136990
      ESP Fit Center 4794 is at   2.093713  1.686697  4.757838
      ESP Fit Center 4795 is at   1.897247  2.067788  4.757838
      ESP Fit Center 4796 is at   1.632210  2.404810  4.757838
      ESP Fit Center 4797 is at   1.308180  2.685583  4.757838
      ESP Fit Center 4798 is at   0.936870  2.899960  4.757838
      ESP Fit Center 4799 is at   0.531698  3.040191  4.757838
      ESP Fit Center 4800 is at   0.107310  3.101209  4.757838
      ESP Fit Center 4801 is at  -0.320957  3.080808  4.757838
      ESP Fit Center 4802 is at  -0.737624  2.979726  4.757838
      ESP Fit Center 4803 is at  -1.127631  2.801615  4.757838
      ESP Fit Center 4804 is at  -1.476883  2.552915  4.757838
      ESP Fit Center 4805 is at  -1.772756  2.242612  4.757838
      ESP Fit Center 4806 is at  -2.004557  1.881922  4.757838
      ESP Fit Center 4807 is at   2.028977  2.060758  4.353746
      ESP Fit Center 4808 is at   1.779913  2.403565  4.353746
      ESP Fit Center 4809 is at   1.473642  2.696390  4.353746
      ESP Fit Center 4810 is at   1.120007  2.929823  4.353746
      ESP Fit Center 4811 is at   0.730374  3.096360  4.353746
      ESP Fit Center 4812 is at   0.317266  3.190649  4.353746
      ESP Fit Center 4813 is at  -0.106040  3.209660  4.353746
      ESP Fit Center 4814 is at  -0.525937  3.152781  4.353746
      ESP Fit Center 4815 is at  -0.928930  3.021840  4.353746
      ESP Fit Center 4816 is at  -1.302066  2.821047  4.353746
      ESP Fit Center 4817 is at  -1.633353  2.556855  4.353746
      ESP Fit Center 4818 is at  -1.912143  2.237754  4.353746
      ESP Fit Center 4819 is at   1.838507  2.391191  3.936990
      ESP Fit Center 4820 is at   1.542690  2.687008  3.936990
      ESP Fit Center 4821 is at   1.200000  2.926962  3.936990
      ESP Fit Center 4822 is at   0.820848  3.103763  3.936990
      ESP Fit Center 4823 is at  -0.820848  3.103763  3.936990
      ESP Fit Center 4824 is at  -1.200000  2.926962  3.936990
      ESP Fit Center 4825 is at  -1.542690  2.687008  3.936990
      ESP Fit Center 4826 is at  -1.838507  2.391191  3.936990
      ESP Fit Center 4827 is at  -0.000000 -0.848501  6.336990
      ESP Fit Center 4828 is at   0.416756 -0.848501  6.300529
      ESP Fit Center 4829 is at  -0.416756 -0.848501  6.300529
      ESP Fit Center 4830 is at  -0.208378 -1.209422  6.300529
      ESP Fit Center 4831 is at   0.208378 -1.209422  6.300529
      ESP Fit Center 4832 is at   0.820848 -0.848501  6.192252
      ESP Fit Center 4833 is at  -0.820848 -0.848501  6.192252
      ESP Fit Center 4834 is at  -0.710876 -1.258925  6.192252
      ESP Fit Center 4835 is at  -0.410424 -1.559377  6.192252
      ESP Fit Center 4836 is at  -0.000000 -1.669349  6.192252
      ESP Fit Center 4837 is at   0.410424 -1.559377  6.192252
      ESP Fit Center 4838 is at   0.710876 -1.258925  6.192252
      ESP Fit Center 4839 is at  -1.127631 -1.258925  6.015451
      ESP Fit Center 4840 is at  -0.919253 -1.619846  6.015451
      ESP Fit Center 4841 is at  -0.600000 -1.887731  6.015451
      ESP Fit Center 4842 is at  -0.208378 -2.030270  6.015451
      ESP Fit Center 4843 is at   0.208378 -2.030270  6.015451
      ESP Fit Center 4844 is at   0.600000 -1.887731  6.015451
      ESP Fit Center 4845 is at   0.919253 -1.619846  6.015451
      ESP Fit Center 4846 is at   1.127631 -1.258925  6.015451
      ESP Fit Center 4847 is at  -1.414973 -1.463110  5.775497
      ESP Fit Center 4848 is at  -1.196682 -1.822074  5.775497
      ESP Fit Center 4849 is at  -0.889639 -2.108832  5.775497
      ESP Fit Center 4850 is at  -0.516616 -2.302118  5.775497
      ESP Fit Center 4851 is at  -0.105277 -2.387595  5.775497
      ESP Fit Center 4852 is at   0.313870 -2.358924  5.775497
      ESP Fit Center 4853 is at   0.709738 -2.218233  5.775497
      ESP Fit Center 4854 is at   1.052968 -1.975955  5.775497
      ESP Fit Center 4855 is at   1.318104 -1.650058  5.775497
      ESP Fit Center 4856 is at   1.485483 -1.264714  5.775497
      ESP Fit Center 4857 is at  -1.727631 -1.477307  5.479680
      ESP Fit Center 4858 is at  -1.536050 -1.858777  5.479680
      ESP Fit Center 4859 is at  -1.261660 -2.185782  5.479680
      ESP Fit Center 4860 is at  -0.919253 -2.440694  5.479680
      ESP Fit Center 4861 is at  -0.527290 -2.609771  5.479680
      ESP Fit Center 4862 is at  -0.106900 -2.683897  5.479680
      ESP Fit Center 4863 is at   0.319253 -2.659077  5.479680
      ESP Fit Center 4864 is at   0.728195 -2.536647  5.479680
      ESP Fit Center 4865 is at   1.097880 -2.323210  5.479680
      ESP Fit Center 4866 is at   1.408378 -2.030270  5.479680
      ESP Fit Center 4867 is at   1.642950 -1.673621  5.479680
      ESP Fit Center 4868 is at   1.788949 -1.272490  5.479680
      ESP Fit Center 4869 is at  -1.983141 -1.470716  5.136990
      ESP Fit Center 4870 is at  -1.817295 -1.857182  5.136990
      ESP Fit Center 4871 is at  -1.577049 -2.202353  5.136990
      ESP Fit Center 4872 is at  -1.272238 -2.492098  5.136990
      ESP Fit Center 4873 is at  -0.915342 -2.714553  5.136990
      ESP Fit Center 4874 is at  -0.520972 -2.860612  5.136990
      ESP Fit Center 4875 is at  -0.105272 -2.924294  5.136990
      ESP Fit Center 4876 is at   0.314737 -2.902994  5.136990
      ESP Fit Center 4877 is at   0.721860 -2.797582  5.136990
      ESP Fit Center 4878 is at   1.099431 -2.612375  5.136990
      ESP Fit Center 4879 is at   1.431991 -2.354955  5.136990
      ESP Fit Center 4880 is at   1.705925 -2.035860  5.136990
      ESP Fit Center 4881 is at   1.910018 -1.668154  5.136990
      ESP Fit Center 4882 is at  -2.004557 -1.881922  4.757838
      ESP Fit Center 4883 is at  -1.772756 -2.242612  4.757838
      ESP Fit Center 4884 is at  -1.476883 -2.552915  4.757838
      ESP Fit Center 4885 is at  -1.127631 -2.801615  4.757838
      ESP Fit Center 4886 is at  -0.737624 -2.979726  4.757838
      ESP Fit Center 4887 is at  -0.320957 -3.080808  4.757838
      ESP Fit Center 4888 is at   0.107310 -3.101209  4.757838
      ESP Fit Center 4889 is at   0.531698 -3.040191  4.757838
      ESP Fit Center 4890 is at   0.936870 -2.899960  4.757838
      ESP Fit Center 4891 is at   1.308180 -2.685583  4.757838
      ESP Fit Center 4892 is at   1.632210 -2.404810  4.757838
      ESP Fit Center 4893 is at   1.897247 -2.067788  4.757838
      ESP Fit Center 4894 is at   2.093713 -1.686697  4.757838
      ESP Fit Center 4895 is at  -1.912143 -2.237754  4.353746
      ESP Fit Center 4896 is at  -1.633353 -2.556855  4.353746
      ESP Fit Center 4897 is at  -1.302066 -2.821047  4.353746
      ESP Fit Center 4898 is at  -0.928930 -3.021840  4.353746
      ESP Fit Center 4899 is at  -0.525937 -3.152781  4.353746
      ESP Fit Center 4900 is at  -0.106040 -3.209660  4.353746
      ESP Fit Center 4901 is at   0.317266 -3.190649  4.353746
      ESP Fit Center 4902 is at   0.730374 -3.096360  4.353746
      ESP Fit Center 4903 is at   1.120007 -2.929823  4.353746
      ESP Fit Center 4904 is at   1.473642 -2.696390  4.353746
      ESP Fit Center 4905 is at   1.779913 -2.403565  4.353746
      ESP Fit Center 4906 is at   2.028977 -2.060758  4.353746
      ESP Fit Center 4907 is at  -1.838507 -2.391191  3.936990
      ESP Fit Center 4908 is at  -1.542690 -2.687008  3.936990
      ESP Fit Center 4909 is at  -1.200000 -2.926962  3.936990
      ESP Fit Center 4910 is at  -0.820848 -3.103763  3.936990
      ESP Fit Center 4911 is at   0.820848 -3.103763  3.936990
      ESP Fit Center 4912 is at   1.200000 -2.926962  3.936990
      ESP Fit Center 4913 is at   1.542690 -2.687008  3.936990
      ESP Fit Center 4914 is at   1.838507 -2.391191  3.936990
      ESP Fit Center 4915 is at   2.478878  1.862823 -1.690722
      ESP Fit Center 4916 is at   2.322361  2.240689 -1.690722
      ESP Fit Center 4917 is at   2.108660  2.589418 -1.690722
      ESP Fit Center 4918 is at  -2.108660  2.589418 -1.690722
      ESP Fit Center 4919 is at  -2.322361  2.240689 -1.690722
      ESP Fit Center 4920 is at  -2.478878  1.862823 -1.690722
      ESP Fit Center 4921 is at   2.697806  1.474089 -2.090618
      ESP Fit Center 4922 is at   2.602580  1.881023 -2.090618
      ESP Fit Center 4923 is at   2.446351  2.268653 -2.090618
      ESP Fit Center 4924 is at   2.232782  2.627891 -2.090618
      ESP Fit Center 4925 is at   1.966879  2.950318 -2.090618
      ESP Fit Center 4926 is at   1.654873  3.228376 -2.090618
      ESP Fit Center 4927 is at   1.304079  3.455548 -2.090618
      ESP Fit Center 4928 is at  -1.483830  3.348685 -2.090618
      ESP Fit Center 4929 is at  -1.816205  3.095327 -2.090618
      ESP Fit Center 4930 is at  -2.106010  2.794200 -2.090618
      ESP Fit Center 4931 is at  -2.346452  2.452365 -2.090618
      ESP Fit Center 4932 is at  -2.531894  2.077832 -2.090618
      ESP Fit Center 4933 is at  -2.657992  1.679381 -2.090618
      ESP Fit Center 4934 is at  -2.721788  1.266351 -2.090618
      ESP Fit Center 4935 is at   2.792171  1.057387 -2.504433
      ESP Fit Center 4936 is at   2.760984  1.473538 -2.504433
      ESP Fit Center 4937 is at   2.668122  1.880394 -2.504433
      ESP Fit Center 4938 is at   2.515659  2.268864 -2.504433
      ESP Fit Center 4939 is at   2.307000  2.630273 -2.504433
      ESP Fit Center 4940 is at   2.046806  2.956545 -2.504433
      ESP Fit Center 4941 is at   1.740890  3.240394 -2.504433
      ESP Fit Center 4942 is at   1.396085  3.475478 -2.504433
      ESP Fit Center 4943 is at   1.020094  3.656545 -2.504433
      ESP Fit Center 4944 is at   0.621316  3.779552 -2.504433
      ESP Fit Center 4945 is at   0.208659  3.841750 -2.504433
      ESP Fit Center 4946 is at  -0.208659  3.841750 -2.504433
      ESP Fit Center 4947 is at  -0.621316  3.779552 -2.504433
      ESP Fit Center 4948 is at  -1.020094  3.656545 -2.504433
      ESP Fit Center 4949 is at  -1.396085  3.475478 -2.504433
      ESP Fit Center 4950 is at  -1.740890  3.240394 -2.504433
      ESP Fit Center 4951 is at  -2.046806  2.956545 -2.504433
      ESP Fit Center 4952 is at  -2.307000  2.630273 -2.504433
      ESP Fit Center 4953 is at  -2.515659  2.268864 -2.504433
      ESP Fit Center 4954 is at  -2.668122  1.880394 -2.504433
      ESP Fit Center 4955 is at  -2.760984  1.473538 -2.504433
      ESP Fit Center 4956 is at  -2.792171  1.057387 -2.504433
      ESP Fit Center 4957 is at   2.792171  1.057387 -2.922921
      ESP Fit Center 4958 is at   2.760984  1.473538 -2.922921
      ESP Fit Center 4959 is at   2.668122  1.880394 -2.922921
      ESP Fit Center 4960 is at   2.515659  2.268864 -2.922921
      ESP Fit Center 4961 is at   2.307000  2.630273 -2.922921
      ESP Fit Center 4962 is at   2.046806  2.956545 -2.922921
      ESP Fit Center 4963 is at   1.740890  3.240394 -2.922921
      ESP Fit Center 4964 is at   1.396085  3.475478 -2.922921
      ESP Fit Center 4965 is at   1.020094  3.656545 -2.922921
      ESP Fit Center 4966 is at   0.621316  3.779552 -2.922921
      ESP Fit Center 4967 is at   0.208659  3.841750 -2.922921
      ESP Fit Center 4968 is at  -0.208659  3.841750 -2.922921
      ESP Fit Center 4969 is at  -0.621316  3.779552 -2.922921
      ESP Fit Center 4970 is at  -1.020094  3.656545 -2.922921
      ESP Fit Center 4971 is at  -1.396085  3.475478 -2.922921
      ESP Fit Center 4972 is at  -1.740890  3.240394 -2.922921
      ESP Fit Center 4973 is at  -2.046806  2.956545 -2.922921
      ESP Fit Center 4974 is at  -2.307000  2.630273 -2.922921
      ESP Fit Center 4975 is at  -2.515659  2.268864 -2.922921
      ESP Fit Center 4976 is at  -2.668122  1.880394 -2.922921
      ESP Fit Center 4977 is at  -2.760984  1.473538 -2.922921
      ESP Fit Center 4978 is at  -2.792171  1.057387 -2.922921
      ESP Fit Center 4979 is at   2.729798  1.057387 -3.336736
      ESP Fit Center 4980 is at   2.697806  1.474089 -3.336736
      ESP Fit Center 4981 is at   2.602580  1.881023 -3.336736
      ESP Fit Center 4982 is at   2.446351  2.268653 -3.336736
      ESP Fit Center 4983 is at   2.232782  2.627891 -3.336736
      ESP Fit Center 4984 is at   1.966879  2.950318 -3.336736
      ESP Fit Center 4985 is at   1.654873  3.228376 -3.336736
      ESP Fit Center 4986 is at   1.304079  3.455548 -3.336736
      ESP Fit Center 4987 is at   0.922718  3.626509 -3.336736
      ESP Fit Center 4988 is at   0.519729  3.737253 -3.336736
      ESP Fit Center 4989 is at   0.104559  3.785182 -3.336736
      ESP Fit Center 4990 is at  -0.313063  3.769174 -3.336736
      ESP Fit Center 4991 is at  -0.723346  3.689604 -3.336736
      ESP Fit Center 4992 is at  -1.116675  3.548338 -3.336736
      ESP Fit Center 4993 is at  -1.483830  3.348685 -3.336736
      ESP Fit Center 4994 is at  -1.816205  3.095327 -3.336736
      ESP Fit Center 4995 is at  -2.106010  2.794200 -3.336736
      ESP Fit Center 4996 is at  -2.346452  2.452365 -3.336736
      ESP Fit Center 4997 is at  -2.531894  2.077832 -3.336736
      ESP Fit Center 4998 is at  -2.657992  1.679381 -3.336736
      ESP Fit Center 4999 is at  -2.721788  1.266351 -3.336736
      ESP Fit Center 5000 is at  -2.721788  0.848423 -3.336736
      ESP Fit Center 5001 is at   2.697806  0.640685 -3.336736
      ESP Fit Center 5002 is at   2.606446  1.057387 -3.736632
      ESP Fit Center 5003 is at   2.574357  1.465125 -3.736632
      ESP Fit Center 5004 is at   2.478878  1.862823 -3.736632
      ESP Fit Center 5005 is at   2.322361  2.240689 -3.736632
      ESP Fit Center 5006 is at   2.108660  2.589418 -3.736632
      ESP Fit Center 5007 is at   1.843036  2.900423 -3.736632
      ESP Fit Center 5008 is at   1.532031  3.166047 -3.736632
      ESP Fit Center 5009 is at   1.183302  3.379748 -3.736632
      ESP Fit Center 5010 is at   0.805436  3.536265 -3.736632
      ESP Fit Center 5011 is at   0.407738  3.631744 -3.736632
      ESP Fit Center 5012 is at   0.000000  3.663833 -3.736632
      ESP Fit Center 5013 is at  -0.407738  3.631744 -3.736632
      ESP Fit Center 5014 is at  -0.805436  3.536265 -3.736632
      ESP Fit Center 5015 is at  -1.183302  3.379748 -3.736632
      ESP Fit Center 5016 is at  -1.532031  3.166047 -3.736632
      ESP Fit Center 5017 is at  -1.843036  2.900423 -3.736632
      ESP Fit Center 5018 is at  -2.108660  2.589418 -3.736632
      ESP Fit Center 5019 is at  -2.322361  2.240689 -3.736632
      ESP Fit Center 5020 is at  -2.478878  1.862823 -3.736632
      ESP Fit Center 5021 is at  -2.574357  1.465125 -3.736632
      ESP Fit Center 5022 is at  -2.606446  1.057387 -3.736632
      ESP Fit Center 5023 is at  -2.574357  0.649649 -3.736632
      ESP Fit Center 5024 is at   2.574357  0.649649 -3.736632
      ESP Fit Center 5025 is at   2.424871  1.057387 -4.113677
      ESP Fit Center 5026 is at   2.389992  1.467192 -4.113677
      ESP Fit Center 5027 is at   2.286356  1.865208 -4.113677
      ESP Fit Center 5028 is at   2.116947  2.239984 -4.113677
      ESP Fit Center 5029 is at   1.886636  2.580740 -4.113677
      ESP Fit Center 5030 is at   1.602051  2.877671 -4.113677
      ESP Fit Center 5031 is at   1.271378  3.122235 -4.113677
      ESP Fit Center 5032 is at   0.904129  3.307398 -4.113677
      ESP Fit Center 5033 is at   0.510870  3.427832 -4.113677
      ESP Fit Center 5034 is at   0.102914  3.480073 -4.113677
      ESP Fit Center 5035 is at  -0.308002  3.462618 -4.113677
      ESP Fit Center 5036 is at  -0.710057  3.375968 -4.113677
      ESP Fit Center 5037 is at  -1.091686  3.222617 -4.113677
      ESP Fit Center 5038 is at  -1.441909  3.006976 -4.113677
      ESP Fit Center 5039 is at  -1.750650  2.735250 -4.113677
      ESP Fit Center 5040 is at  -2.009029  2.415254 -4.113677
      ESP Fit Center 5041 is at  -2.209612  2.056194 -4.113677
      ESP Fit Center 5042 is at  -2.346628  1.668401 -4.113677
      ESP Fit Center 5043 is at  -2.416136  1.263030 -4.113677
      ESP Fit Center 5044 is at  -2.416136  0.851744 -4.113677
      ESP Fit Center 5045 is at  -2.346628  0.446373 -4.113677
      ESP Fit Center 5046 is at   2.286356  0.249566 -4.113677
      ESP Fit Center 5047 is at   2.389992  0.647582 -4.113677
      ESP Fit Center 5048 is at   2.189128  1.057387 -4.459448
      ESP Fit Center 5049 is at   2.149568  1.471682 -4.459448
      ESP Fit Center 5050 is at   2.032316  1.871004 -4.459448
      ESP Fit Center 5051 is at   1.841612  2.240919 -4.459448
      ESP Fit Center 5052 is at   1.584347  2.568058 -4.459448
      ESP Fit Center 5053 is at   1.269819  2.840598 -4.459448
      ESP Fit Center 5054 is at   0.909397  3.048688 -4.459448
      ESP Fit Center 5055 is at   0.516107  3.184807 -4.459448
      ESP Fit Center 5056 is at   0.104163  3.244036 -4.459448
      ESP Fit Center 5057 is at  -0.311545  3.224233 -4.459448
      ESP Fit Center 5058 is at  -0.715994  3.126115 -4.459448
      ESP Fit Center 5059 is at  -1.094564  2.953228 -4.459448
      ESP Fit Center 5060 is at  -1.433574  2.711820 -4.459448
      ESP Fit Center 5061 is at  -1.720771  2.410616 -4.459448
      ESP Fit Center 5062 is at  -1.945775  2.060504 -4.459448
      ESP Fit Center 5063 is at  -2.100453  1.674136 -4.459448
      ESP Fit Center 5064 is at  -2.179216  1.265477 -4.459448
      ESP Fit Center 5065 is at  -2.179216  0.849297 -4.459448
      ESP Fit Center 5066 is at  -2.100453  0.440638 -4.459448
      ESP Fit Center 5067 is at  -1.945775  0.054270 -4.459448
      ESP Fit Center 5068 is at   2.032316  0.243770 -4.459448
      ESP Fit Center 5069 is at   2.149568  0.643092 -4.459448
      ESP Fit Center 5070 is at   1.904484  1.057387 -4.766222
      ESP Fit Center 5071 is at   1.859958  1.466795 -4.766222
      ESP Fit Center 5072 is at   1.728463  1.857059 -4.766222
      ESP Fit Center 5073 is at   1.516146  2.209931 -4.766222
      ESP Fit Center 5074 is at   1.232937  2.508912 -4.766222
      ESP Fit Center 5075 is at   0.892076  2.740021 -4.766222
      ESP Fit Center 5076 is at   0.509503  2.892452 -4.766222
      ESP Fit Center 5077 is at   0.103107  2.959078 -4.766222
      ESP Fit Center 5078 is at  -0.308111  2.936782 -4.766222
      ESP Fit Center 5079 is at  -0.704922  2.826608 -4.766222
      ESP Fit Center 5080 is at  -1.068772  2.633707 -4.766222
      ESP Fit Center 5081 is at  -1.382647  2.367099 -4.766222
      ESP Fit Center 5082 is at  -1.631870  2.039251 -4.766222
      ESP Fit Center 5083 is at  -1.804790  1.665492 -4.766222
      ESP Fit Center 5084 is at  -1.893320  1.263298 -4.766222
      ESP Fit Center 5085 is at  -1.893320  0.851476 -4.766222
      ESP Fit Center 5086 is at  -1.804790  0.449282 -4.766222
      ESP Fit Center 5087 is at  -1.631870  0.075523 -4.766222
      ESP Fit Center 5088 is at   1.728463  0.257715 -4.766222
      ESP Fit Center 5089 is at   1.859958  0.647979 -4.766222
      ESP Fit Center 5090 is at   1.577296  1.057387 -5.027146
      ESP Fit Center 5091 is at   1.523551  1.465621 -5.027146
      ESP Fit Center 5092 is at   1.365979  1.846035 -5.027146
      ESP Fit Center 5093 is at   1.115317  2.172704 -5.027146
      ESP Fit Center 5094 is at   0.788648  2.423366 -5.027146
      ESP Fit Center 5095 is at   0.408234  2.580938 -5.027146
      ESP Fit Center 5096 is at   0.000000  2.634683 -5.027146
      ESP Fit Center 5097 is at  -0.408234  2.580938 -5.027146
      ESP Fit Center 5098 is at  -0.788648  2.423366 -5.027146
      ESP Fit Center 5099 is at  -1.115317  2.172704 -5.027146
      ESP Fit Center 5100 is at  -1.365979  1.846035 -5.027146
      ESP Fit Center 5101 is at  -1.523551  1.465621 -5.027146
      ESP Fit Center 5102 is at  -1.577296  1.057387 -5.027146
      ESP Fit Center 5103 is at  -1.523551  0.649153 -5.027146
      ESP Fit Center 5104 is at  -1.365979  0.268739 -5.027146
      ESP Fit Center 5105 is at   1.365979  0.268739 -5.027146
      ESP Fit Center 5106 is at   1.523551  0.649153 -5.027146
      ESP Fit Center 5107 is at   1.214874  1.057387 -5.236390
      ESP Fit Center 5108 is at   1.141609  1.472899 -5.236390
      ESP Fit Center 5109 is at   0.930648  1.838293 -5.236390
      ESP Fit Center 5110 is at   0.607437  2.109499 -5.236390
      ESP Fit Center 5111 is at   0.210961  2.253805 -5.236390
      ESP Fit Center 5112 is at  -0.210961  2.253805 -5.236390
      ESP Fit Center 5113 is at  -0.607437  2.109499 -5.236390
      ESP Fit Center 5114 is at  -0.930648  1.838293 -5.236390
      ESP Fit Center 5115 is at  -1.141609  1.472899 -5.236390
      ESP Fit Center 5116 is at  -1.214874  1.057387 -5.236390
      ESP Fit Center 5117 is at  -1.141609  0.641875 -5.236390
      ESP Fit Center 5118 is at  -0.930648  0.276481 -5.236390
      ESP Fit Center 5119 is at  -0.607437  0.005275 -5.236390
      ESP Fit Center 5120 is at   0.607437  0.005275 -5.236390
      ESP Fit Center 5121 is at   0.930648  0.276481 -5.236390
      ESP Fit Center 5122 is at   1.141609  0.641875 -5.236390
      ESP Fit Center 5123 is at   0.825314  1.057387 -5.389281
      ESP Fit Center 5124 is at   0.714743  1.470044 -5.389281
      ESP Fit Center 5125 is at   0.412657  1.772130 -5.389281
      ESP Fit Center 5126 is at   0.000000  1.882701 -5.389281
      ESP Fit Center 5127 is at  -0.412657  1.772130 -5.389281
      ESP Fit Center 5128 is at  -0.714743  1.470044 -5.389281
      ESP Fit Center 5129 is at  -0.825314  1.057387 -5.389281
      ESP Fit Center 5130 is at  -0.714743  0.644730 -5.389281
      ESP Fit Center 5131 is at  -0.412657  0.342644 -5.389281
      ESP Fit Center 5132 is at  -0.000000  0.232073 -5.389281
      ESP Fit Center 5133 is at   0.412657  0.342644 -5.389281
      ESP Fit Center 5134 is at   0.714743  0.644730 -5.389281
      ESP Fit Center 5135 is at   0.417318  1.057387 -5.482403
      ESP Fit Center 5136 is at   0.208659  1.418795 -5.482403
      ESP Fit Center 5137 is at  -0.208659  1.418795 -5.482403
      ESP Fit Center 5138 is at  -0.417318  1.057387 -5.482403
      ESP Fit Center 5139 is at  -0.208659  0.695979 -5.482403
      ESP Fit Center 5140 is at   0.208659  0.695979 -5.482403
      ESP Fit Center 5141 is at   0.000000  1.057387 -5.513677
      ESP Fit Center 5142 is at  -2.478878 -1.862823 -1.690722
      ESP Fit Center 5143 is at  -2.322361 -2.240689 -1.690722
      ESP Fit Center 5144 is at  -2.108660 -2.589418 -1.690722
      ESP Fit Center 5145 is at   2.108660 -2.589418 -1.690722
      ESP Fit Center 5146 is at   2.322361 -2.240689 -1.690722
      ESP Fit Center 5147 is at   2.478878 -1.862823 -1.690722
      ESP Fit Center 5148 is at  -2.721788 -1.266351 -2.090618
      ESP Fit Center 5149 is at  -2.657992 -1.679381 -2.090618
      ESP Fit Center 5150 is at  -2.531894 -2.077832 -2.090618
      ESP Fit Center 5151 is at  -2.346452 -2.452365 -2.090618
      ESP Fit Center 5152 is at  -2.106010 -2.794200 -2.090618
      ESP Fit Center 5153 is at  -1.816205 -3.095327 -2.090618
      ESP Fit Center 5154 is at  -1.483830 -3.348685 -2.090618
      ESP Fit Center 5155 is at   1.304079 -3.455548 -2.090618
      ESP Fit Center 5156 is at   1.654873 -3.228376 -2.090618
      ESP Fit Center 5157 is at   1.966879 -2.950318 -2.090618
      ESP Fit Center 5158 is at   2.232782 -2.627891 -2.090618
      ESP Fit Center 5159 is at   2.446351 -2.268653 -2.090618
      ESP Fit Center 5160 is at   2.602580 -1.881023 -2.090618
      ESP Fit Center 5161 is at   2.697806 -1.474089 -2.090618
      ESP Fit Center 5162 is at   2.792171 -1.057387 -2.504433
      ESP Fit Center 5163 is at  -2.792171 -1.057387 -2.504433
      ESP Fit Center 5164 is at  -2.760984 -1.473538 -2.504433
      ESP Fit Center 5165 is at  -2.668122 -1.880394 -2.504433
      ESP Fit Center 5166 is at  -2.515659 -2.268864 -2.504433
      ESP Fit Center 5167 is at  -2.307000 -2.630273 -2.504433
      ESP Fit Center 5168 is at  -2.046806 -2.956545 -2.504433
      ESP Fit Center 5169 is at  -1.740890 -3.240394 -2.504433
      ESP Fit Center 5170 is at  -1.396085 -3.475478 -2.504433
      ESP Fit Center 5171 is at  -1.020094 -3.656545 -2.504433
      ESP Fit Center 5172 is at  -0.621316 -3.779552 -2.504433
      ESP Fit Center 5173 is at  -0.208659 -3.841750 -2.504433
      ESP Fit Center 5174 is at   0.208659 -3.841750 -2.504433
      ESP Fit Center 5175 is at   0.621316 -3.779552 -2.504433
      ESP Fit Center 5176 is at   1.020094 -3.656545 -2.504433
      ESP Fit Center 5177 is at   1.396085 -3.475478 -2.504433
      ESP Fit Center 5178 is at   1.740890 -3.240394 -2.504433
      ESP Fit Center 5179 is at   2.046806 -2.956545 -2.504433
      ESP Fit Center 5180 is at   2.307000 -2.630273 -2.504433
      ESP Fit Center 5181 is at   2.515659 -2.268864 -2.504433
      ESP Fit Center 5182 is at   2.668122 -1.880394 -2.504433
      ESP Fit Center 5183 is at   2.760984 -1.473538 -2.504433
      ESP Fit Center 5184 is at   2.792171 -1.057387 -2.922921
      ESP Fit Center 5185 is at  -2.792171 -1.057387 -2.922921
      ESP Fit Center 5186 is at  -2.760984 -1.473538 -2.922921
      ESP Fit Center 5187 is at  -2.668122 -1.880394 -2.922921
      ESP Fit Center 5188 is at  -2.515659 -2.268864 -2.922921
      ESP Fit Center 5189 is at  -2.307000 -2.630273 -2.922921
      ESP Fit Center 5190 is at  -2.046806 -2.956545 -2.922921
      ESP Fit Center 5191 is at  -1.740890 -3.240394 -2.922921
      ESP Fit Center 5192 is at  -1.396085 -3.475478 -2.922921
      ESP Fit Center 5193 is at  -1.020094 -3.656545 -2.922921
      ESP Fit Center 5194 is at  -0.621316 -3.779552 -2.922921
      ESP Fit Center 5195 is at  -0.208659 -3.841750 -2.922921
      ESP Fit Center 5196 is at   0.208659 -3.841750 -2.922921
      ESP Fit Center 5197 is at   0.621316 -3.779552 -2.922921
      ESP Fit Center 5198 is at   1.020094 -3.656545 -2.922921
      ESP Fit Center 5199 is at   1.396085 -3.475478 -2.922921
      ESP Fit Center 5200 is at   1.740890 -3.240394 -2.922921
      ESP Fit Center 5201 is at   2.046806 -2.956545 -2.922921
      ESP Fit Center 5202 is at   2.307000 -2.630273 -2.922921
      ESP Fit Center 5203 is at   2.515659 -2.268864 -2.922921
      ESP Fit Center 5204 is at   2.668122 -1.880394 -2.922921
      ESP Fit Center 5205 is at   2.760984 -1.473538 -2.922921
      ESP Fit Center 5206 is at   2.729798 -1.057387 -3.336736
      ESP Fit Center 5207 is at   2.697806 -0.640685 -3.336736
      ESP Fit Center 5208 is at  -2.721788 -0.848423 -3.336736
      ESP Fit Center 5209 is at  -2.721788 -1.266351 -3.336736
      ESP Fit Center 5210 is at  -2.657992 -1.679381 -3.336736
      ESP Fit Center 5211 is at  -2.531894 -2.077832 -3.336736
      ESP Fit Center 5212 is at  -2.346452 -2.452365 -3.336736
      ESP Fit Center 5213 is at  -2.106010 -2.794200 -3.336736
      ESP Fit Center 5214 is at  -1.816205 -3.095327 -3.336736
      ESP Fit Center 5215 is at  -1.483830 -3.348685 -3.336736
      ESP Fit Center 5216 is at  -1.116675 -3.548338 -3.336736
      ESP Fit Center 5217 is at  -0.723346 -3.689604 -3.336736
      ESP Fit Center 5218 is at  -0.313063 -3.769174 -3.336736
      ESP Fit Center 5219 is at   0.104559 -3.785182 -3.336736
      ESP Fit Center 5220 is at   0.519729 -3.737253 -3.336736
      ESP Fit Center 5221 is at   0.922718 -3.626509 -3.336736
      ESP Fit Center 5222 is at   1.304079 -3.455548 -3.336736
      ESP Fit Center 5223 is at   1.654873 -3.228376 -3.336736
      ESP Fit Center 5224 is at   1.966879 -2.950318 -3.336736
      ESP Fit Center 5225 is at   2.232782 -2.627891 -3.336736
      ESP Fit Center 5226 is at   2.446351 -2.268653 -3.336736
      ESP Fit Center 5227 is at   2.602580 -1.881023 -3.336736
      ESP Fit Center 5228 is at   2.697806 -1.474089 -3.336736
      ESP Fit Center 5229 is at   2.606446 -1.057387 -3.736632
      ESP Fit Center 5230 is at   2.574357 -0.649649 -3.736632
      ESP Fit Center 5231 is at  -2.574357 -0.649649 -3.736632
      ESP Fit Center 5232 is at  -2.606446 -1.057387 -3.736632
      ESP Fit Center 5233 is at  -2.574357 -1.465125 -3.736632
      ESP Fit Center 5234 is at  -2.478878 -1.862823 -3.736632
      ESP Fit Center 5235 is at  -2.322361 -2.240689 -3.736632
      ESP Fit Center 5236 is at  -2.108660 -2.589418 -3.736632
      ESP Fit Center 5237 is at  -1.843036 -2.900423 -3.736632
      ESP Fit Center 5238 is at  -1.532031 -3.166047 -3.736632
      ESP Fit Center 5239 is at  -1.183302 -3.379748 -3.736632
      ESP Fit Center 5240 is at  -0.805436 -3.536265 -3.736632
      ESP Fit Center 5241 is at  -0.407738 -3.631744 -3.736632
      ESP Fit Center 5242 is at  -0.000000 -3.663833 -3.736632
      ESP Fit Center 5243 is at   0.407738 -3.631744 -3.736632
      ESP Fit Center 5244 is at   0.805436 -3.536265 -3.736632
      ESP Fit Center 5245 is at   1.183302 -3.379748 -3.736632
      ESP Fit Center 5246 is at   1.532031 -3.166047 -3.736632
      ESP Fit Center 5247 is at   1.843036 -2.900423 -3.736632
      ESP Fit Center 5248 is at   2.108660 -2.589418 -3.736632
      ESP Fit Center 5249 is at   2.322361 -2.240689 -3.736632
      ESP Fit Center 5250 is at   2.478878 -1.862823 -3.736632
      ESP Fit Center 5251 is at   2.574357 -1.465125 -3.736632
      ESP Fit Center 5252 is at   2.424871 -1.057387 -4.113677
      ESP Fit Center 5253 is at   2.389992 -0.647582 -4.113677
      ESP Fit Center 5254 is at   2.286356 -0.249566 -4.113677
      ESP Fit Center 5255 is at  -2.346628 -0.446373 -4.113677
      ESP Fit Center 5256 is at  -2.416136 -0.851744 -4.113677
      ESP Fit Center 5257 is at  -2.416136 -1.263030 -4.113677
      ESP Fit Center 5258 is at  -2.346628 -1.668401 -4.113677
      ESP Fit Center 5259 is at  -2.209612 -2.056194 -4.113677
      ESP Fit Center 5260 is at  -2.009029 -2.415254 -4.113677
      ESP Fit Center 5261 is at  -1.750650 -2.735250 -4.113677
      ESP Fit Center 5262 is at  -1.441909 -3.006976 -4.113677
      ESP Fit Center 5263 is at  -1.091686 -3.222617 -4.113677
      ESP Fit Center 5264 is at  -0.710057 -3.375968 -4.113677
      ESP Fit Center 5265 is at  -0.308002 -3.462618 -4.113677
      ESP Fit Center 5266 is at   0.102914 -3.480073 -4.113677
      ESP Fit Center 5267 is at   0.510870 -3.427832 -4.113677
      ESP Fit Center 5268 is at   0.904129 -3.307398 -4.113677
      ESP Fit Center 5269 is at   1.271378 -3.122235 -4.113677
      ESP Fit Center 5270 is at   1.602051 -2.877671 -4.113677
      ESP Fit Center 5271 is at   1.886636 -2.580740 -4.113677
      ESP Fit Center 5272 is at   2.116947 -2.239984 -4.113677
      ESP Fit Center 5273 is at   2.286356 -1.865208 -4.113677
      ESP Fit Center 5274 is at   2.389992 -1.467192 -4.113677
      ESP Fit Center 5275 is at   2.189128 -1.057387 -4.459448
      ESP Fit Center 5276 is at   2.149568 -0.643092 -4.459448
      ESP Fit Center 5277 is at   2.032316 -0.243770 -4.459448
      ESP Fit Center 5278 is at  -1.945775 -0.054270 -4.459448
      ESP Fit Center 5279 is at  -2.100453 -0.440638 -4.459448
      ESP Fit Center 5280 is at  -2.179216 -0.849297 -4.459448
      ESP Fit Center 5281 is at  -2.179216 -1.265477 -4.459448
      ESP Fit Center 5282 is at  -2.100453 -1.674136 -4.459448
      ESP Fit Center 5283 is at  -1.945775 -2.060504 -4.459448
      ESP Fit Center 5284 is at  -1.720771 -2.410616 -4.459448
      ESP Fit Center 5285 is at  -1.433574 -2.711820 -4.459448
      ESP Fit Center 5286 is at  -1.094564 -2.953228 -4.459448
      ESP Fit Center 5287 is at  -0.715994 -3.126115 -4.459448
      ESP Fit Center 5288 is at  -0.311545 -3.224233 -4.459448
      ESP Fit Center 5289 is at   0.104163 -3.244036 -4.459448
      ESP Fit Center 5290 is at   0.516107 -3.184807 -4.459448
      ESP Fit Center 5291 is at   0.909397 -3.048688 -4.459448
      ESP Fit Center 5292 is at   1.269819 -2.840598 -4.459448
      ESP Fit Center 5293 is at   1.584347 -2.568058 -4.459448
      ESP Fit Center 5294 is at   1.841612 -2.240919 -4.459448
      ESP Fit Center 5295 is at   2.032316 -1.871004 -4.459448
      ESP Fit Center 5296 is at   2.149568 -1.471682 -4.459448
      ESP Fit Center 5297 is at   1.904484 -1.057387 -4.766222
      ESP Fit Center 5298 is at   1.859958 -0.647979 -4.766222
      ESP Fit Center 5299 is at   1.728463 -0.257715 -4.766222
      ESP Fit Center 5300 is at  -1.631870 -0.075523 -4.766222
      ESP Fit Center 5301 is at  -1.804790 -0.449282 -4.766222
      ESP Fit Center 5302 is at  -1.893320 -0.851476 -4.766222
      ESP Fit Center 5303 is at  -1.893320 -1.263298 -4.766222
      ESP Fit Center 5304 is at  -1.804790 -1.665492 -4.766222
      ESP Fit Center 5305 is at  -1.631870 -2.039251 -4.766222
      ESP Fit Center 5306 is at  -1.382647 -2.367099 -4.766222
      ESP Fit Center 5307 is at  -1.068772 -2.633707 -4.766222
      ESP Fit Center 5308 is at  -0.704922 -2.826608 -4.766222
      ESP Fit Center 5309 is at  -0.308111 -2.936782 -4.766222
      ESP Fit Center 5310 is at   0.103107 -2.959078 -4.766222
      ESP Fit Center 5311 is at   0.509503 -2.892452 -4.766222
      ESP Fit Center 5312 is at   0.892076 -2.740021 -4.766222
      ESP Fit Center 5313 is at   1.232937 -2.508912 -4.766222
      ESP Fit Center 5314 is at   1.516146 -2.209931 -4.766222
      ESP Fit Center 5315 is at   1.728463 -1.857059 -4.766222
      ESP Fit Center 5316 is at   1.859958 -1.466795 -4.766222
      ESP Fit Center 5317 is at   1.577296 -1.057387 -5.027146
      ESP Fit Center 5318 is at   1.523551 -0.649153 -5.027146
      ESP Fit Center 5319 is at   1.365979 -0.268739 -5.027146
      ESP Fit Center 5320 is at  -1.365979 -0.268739 -5.027146
      ESP Fit Center 5321 is at  -1.523551 -0.649153 -5.027146
      ESP Fit Center 5322 is at  -1.577296 -1.057387 -5.027146
      ESP Fit Center 5323 is at  -1.523551 -1.465621 -5.027146
      ESP Fit Center 5324 is at  -1.365979 -1.846035 -5.027146
      ESP Fit Center 5325 is at  -1.115317 -2.172704 -5.027146
      ESP Fit Center 5326 is at  -0.788648 -2.423366 -5.027146
      ESP Fit Center 5327 is at  -0.408234 -2.580938 -5.027146
      ESP Fit Center 5328 is at  -0.000000 -2.634683 -5.027146
      ESP Fit Center 5329 is at   0.408234 -2.580938 -5.027146
      ESP Fit Center 5330 is at   0.788648 -2.423366 -5.027146
      ESP Fit Center 5331 is at   1.115317 -2.172704 -5.027146
      ESP Fit Center 5332 is at   1.365979 -1.846035 -5.027146
      ESP Fit Center 5333 is at   1.523551 -1.465621 -5.027146
      ESP Fit Center 5334 is at   1.214874 -1.057387 -5.236390
      ESP Fit Center 5335 is at   1.141609 -0.641875 -5.236390
      ESP Fit Center 5336 is at   0.930648 -0.276481 -5.236390
      ESP Fit Center 5337 is at   0.607437 -0.005275 -5.236390
      ESP Fit Center 5338 is at  -0.607437 -0.005275 -5.236390
      ESP Fit Center 5339 is at  -0.930648 -0.276481 -5.236390
      ESP Fit Center 5340 is at  -1.141609 -0.641875 -5.236390
      ESP Fit Center 5341 is at  -1.214874 -1.057387 -5.236390
      ESP Fit Center 5342 is at  -1.141609 -1.472899 -5.236390
      ESP Fit Center 5343 is at  -0.930648 -1.838293 -5.236390
      ESP Fit Center 5344 is at  -0.607437 -2.109499 -5.236390
      ESP Fit Center 5345 is at  -0.210961 -2.253805 -5.236390
      ESP Fit Center 5346 is at   0.210961 -2.253805 -5.236390
      ESP Fit Center 5347 is at   0.607437 -2.109499 -5.236390
      ESP Fit Center 5348 is at   0.930648 -1.838293 -5.236390
      ESP Fit Center 5349 is at   1.141609 -1.472899 -5.236390
      ESP Fit Center 5350 is at   0.825314 -1.057387 -5.389281
      ESP Fit Center 5351 is at   0.714743 -0.644730 -5.389281
      ESP Fit Center 5352 is at   0.412657 -0.342644 -5.389281
      ESP Fit Center 5353 is at  -0.000000 -0.232073 -5.389281
      ESP Fit Center 5354 is at  -0.412657 -0.342644 -5.389281
      ESP Fit Center 5355 is at  -0.714743 -0.644730 -5.389281
      ESP Fit Center 5356 is at  -0.825314 -1.057387 -5.389281
      ESP Fit Center 5357 is at  -0.714743 -1.470044 -5.389281
      ESP Fit Center 5358 is at  -0.412657 -1.772130 -5.389281
      ESP Fit Center 5359 is at  -0.000000 -1.882701 -5.389281
      ESP Fit Center 5360 is at   0.412657 -1.772130 -5.389281
      ESP Fit Center 5361 is at   0.714743 -1.470044 -5.389281
      ESP Fit Center 5362 is at   0.417318 -1.057387 -5.482403
      ESP Fit Center 5363 is at   0.208659 -0.695979 -5.482403
      ESP Fit Center 5364 is at  -0.208659 -0.695979 -5.482403
      ESP Fit Center 5365 is at  -0.417318 -1.057387 -5.482403
      ESP Fit Center 5366 is at  -0.208659 -1.418795 -5.482403
      ESP Fit Center 5367 is at   0.208659 -1.418795 -5.482403
      ESP Fit Center 5368 is at   0.000000 -1.057387 -5.513677
 Entering OneElI...
 OneElI was handed  1572768251 working-precision words.
 Calculate electrostatic properties
    NBasis =   162  MinDer = 0  MaxDer = 0
    NGrid  =  5368  NMatD  =   1
 Requested accuracy = 0.1000D-05
 PrtBox:  NBox=     1 Levels=  1 BoxLen=   22.46 SMaxX=       12.57
          Shift=            0.000000            4.044749            5.128106
 Box      1 Number                   0 centers from      1 to     52:
 ShPair: Thresh= 1.00D-06 NBox=     1 BxSize= 2.25D+01 RnKept= 1.06D+01
         NSMCal=                 1378 NSMKep=                 951
 PrsmSu:  NPrtUS=   4 ThrOK=T IAlg=1 NPAlg=1 LenDen=           0.
 Prism:   IPart=     0 DynPar=F LinDyn=F Incr=         512.
 PRISM was handed   393037940 working-precision words and   951 shell-pairs
 PRISM was handed   393037940 working-precision words and   951 shell-pairs
 PRISM was handed   393037940 working-precision words and   951 shell-pairs
 PRISM was handed   393037940 working-precision words and   951 shell-pairs
 IPart=  3 NShTot=     1218536 NBatch=         252 AvBLen=      4835.5
 IPart=  2 NShTot=     1223904 NBatch=         253 AvBLen=      4837.6
 IPart=  0 NShTot=     1342000 NBatch=         280 AvBLen=      4792.9
 IPart=  1 NShTot=     1320528 NBatch=         276 AvBLen=      4784.5
 PrSmSu:  NxtVal=           2049.
    5352 points will be used for fitting atomic charges
 Fitting point charges to electrostatic potential
 Charges from ESP fit, RMS=   0.00123 RRMS=   0.05135:
 ESP charges:
               1
     1  C   -0.074403
     2  C   -0.074403
     3  C   -0.424650
     4  C   -0.424650
     5  C    0.699454
     6  C   -0.102442
     7  H    0.184251
     8  H    0.184251
     9  H    0.194655
    10  H    0.194655
    11  N    0.829349
    12  N   -1.128631
    13  H    0.463419
    14  H    0.463419
    15  O   -0.492137
    16  O   -0.492137
 Sum of ESP charges =   0.00000
 ESP charges with hydrogens summed into heavy atoms:
               1
     1  C    0.109849
     2  C    0.109849
     3  C   -0.229995
     4  C   -0.229995
     5  C    0.699454
     6  C   -0.102442
    11  N    0.829349
    12  N   -0.201793
    15  O   -0.492137
    16  O   -0.492137
 Charge=   0.00000 Dipole=    -0.0000     0.0000     7.5275 Tot=     7.5275
 Free-field routines initialized.
 FFRead:  read line "ANTECHAMBER.ESP"
 FFRead:  read line ""
 FFGetT -- end-of-line.
 Writing Antechamber ESP file "ANTECHAMBER.ESP"
 -----------------------------------------------------------------

              Electrostatic Properties (Atomic Units)

 -----------------------------------------------------------------
    Center     Electric         -------- Electric Field --------
               Potential          X             Y             Z
 -----------------------------------------------------------------
    1 Atom    -14.694695
    2 Atom    -14.694695
    3 Atom    -14.714012
    4 Atom    -14.714012
    5 Atom    -14.641695
    6 Atom    -14.680152
    7 Atom     -1.079171
    8 Atom     -1.079171
    9 Atom     -1.082545
   10 Atom     -1.082545
   11 Atom    -18.059969
   12 Atom    -18.297798
   13 Atom     -0.994909
   14 Atom     -0.994909
   15 Atom    -22.300163
   16 Atom    -22.300163
   17 Fit      -0.008805
   18 Fit      -0.006181
   19 Fit      -0.002116
   20 Fit       0.003252
   21 Fit       0.009721
   22 Fit       0.013242
   23 Fit       0.006369
   24 Fit       0.000415
   25 Fit      -0.004321
   26 Fit      -0.007681
   27 Fit      -0.009536
   28 Fit      -0.009770
   29 Fit      -0.008221
   30 Fit      -0.009243
   31 Fit      -0.009862
   32 Fit      -0.006886
   33 Fit      -0.004359
   34 Fit      -0.000956
   35 Fit       0.003517
   36 Fit       0.003517
   37 Fit      -0.000956
   38 Fit      -0.004359
   39 Fit      -0.006886
   40 Fit      -0.008638
   41 Fit      -0.008638
   42 Fit      -0.005462
   43 Fit      -0.003171
   44 Fit      -0.000137
   45 Fit       0.004198
   46 Fit       0.001825
   47 Fit      -0.001776
   48 Fit      -0.004384
   49 Fit      -0.006432
   50 Fit      -0.007292
   51 Fit      -0.003994
   52 Fit      -0.002755
   53 Fit      -0.000293
   54 Fit       0.001664
   55 Fit      -0.001722
   56 Fit      -0.003491
   57 Fit      -0.004277
   58 Fit      -0.002080
   59 Fit      -0.003608
   60 Fit      -0.003608
   61 Fit      -0.002080
   62 Fit      -0.008805
   63 Fit      -0.009862
   64 Fit      -0.009243
   65 Fit      -0.008221
   66 Fit      -0.009770
   67 Fit      -0.009536
   68 Fit      -0.007681
   69 Fit      -0.004321
   70 Fit       0.000415
   71 Fit       0.006369
   72 Fit       0.013242
   73 Fit       0.009721
   74 Fit       0.003252
   75 Fit      -0.002116
   76 Fit      -0.006181
   77 Fit      -0.006886
   78 Fit      -0.008638
   79 Fit      -0.008638
   80 Fit      -0.006886
   81 Fit      -0.004359
   82 Fit      -0.000956
   83 Fit       0.003517
   84 Fit       0.003517
   85 Fit      -0.000956
   86 Fit      -0.004359
   87 Fit      -0.005462
   88 Fit      -0.007292
   89 Fit      -0.006432
   90 Fit      -0.004384
   91 Fit      -0.001776
   92 Fit       0.001825
   93 Fit       0.004198
   94 Fit      -0.000137
   95 Fit      -0.003171
   96 Fit      -0.003994
   97 Fit      -0.004277
   98 Fit      -0.003491
   99 Fit      -0.001722
  100 Fit       0.001664
  101 Fit      -0.000293
  102 Fit      -0.002755
  103 Fit      -0.002080
  104 Fit      -0.002080
  105 Fit      -0.003608
  106 Fit      -0.003608
  107 Fit       0.021614
  108 Fit       0.021614
  109 Fit       0.007490
  110 Fit       0.011315
  111 Fit       0.011315
  112 Fit       0.007490
  113 Fit       0.000993
  114 Fit       0.003841
  115 Fit       0.008311
  116 Fit       0.011247
  117 Fit       0.005866
  118 Fit       0.002209
  119 Fit       0.000281
  120 Fit      -0.004214
  121 Fit      -0.001691
  122 Fit       0.002345
  123 Fit       0.007981
  124 Fit       0.004945
  125 Fit       0.000141
  126 Fit      -0.003150
  127 Fit      -0.004836
  128 Fit      -0.004943
  129 Fit      -0.007980
  130 Fit      -0.005559
  131 Fit      -0.001597
  132 Fit       0.003789
  133 Fit       0.003789
  134 Fit      -0.001597
  135 Fit      -0.005559
  136 Fit      -0.007980
  137 Fit      -0.008674
  138 Fit      -0.007495
  139 Fit      -0.007495
  140 Fit      -0.008674
  141 Fit      -0.010142
  142 Fit      -0.007592
  143 Fit      -0.003241
  144 Fit       0.002620
  145 Fit       0.009644
  146 Fit       0.013432
  147 Fit       0.006014
  148 Fit      -0.000480
  149 Fit      -0.005624
  150 Fit      -0.009109
  151 Fit      -0.010662
  152 Fit      -0.010118
  153 Fit      -0.007587
  154 Fit      -0.009084
  155 Fit      -0.010653
  156 Fit       0.021614
  157 Fit       0.021614
  158 Fit       0.007490
  159 Fit       0.007490
  160 Fit       0.011315
  161 Fit       0.011315
  162 Fit       0.000993
  163 Fit       0.000281
  164 Fit       0.002209
  165 Fit       0.005866
  166 Fit       0.011247
  167 Fit       0.008311
  168 Fit       0.003841
  169 Fit      -0.004214
  170 Fit      -0.004943
  171 Fit      -0.004836
  172 Fit      -0.003150
  173 Fit       0.000141
  174 Fit       0.004945
  175 Fit       0.007981
  176 Fit       0.002345
  177 Fit      -0.001691
  178 Fit      -0.007980
  179 Fit      -0.008674
  180 Fit      -0.007495
  181 Fit      -0.007495
  182 Fit      -0.008674
  183 Fit      -0.007980
  184 Fit      -0.005559
  185 Fit      -0.001597
  186 Fit       0.003789
  187 Fit       0.003789
  188 Fit      -0.001597
  189 Fit      -0.005559
  190 Fit      -0.010142
  191 Fit      -0.010653
  192 Fit      -0.009084
  193 Fit      -0.007587
  194 Fit      -0.010118
  195 Fit      -0.010662
  196 Fit      -0.009109
  197 Fit      -0.005624
  198 Fit      -0.000480
  199 Fit       0.006014
  200 Fit       0.013432
  201 Fit       0.009644
  202 Fit       0.002620
  203 Fit      -0.003241
  204 Fit      -0.007592
  205 Fit       0.000061
  206 Fit       0.000753
  207 Fit       0.003045
  208 Fit       0.004987
  209 Fit       0.001668
  210 Fit       0.000231
  211 Fit       0.000231
  212 Fit       0.001668
  213 Fit       0.004987
  214 Fit       0.003045
  215 Fit       0.000753
  216 Fit      -0.001233
  217 Fit      -0.001310
  218 Fit      -0.001124
  219 Fit      -0.001124
  220 Fit      -0.001310
  221 Fit      -0.001233
  222 Fit      -0.001310
  223 Fit      -0.001124
  224 Fit      -0.001124
  225 Fit      -0.001310
  226 Fit      -0.004302
  227 Fit      -0.005017
  228 Fit      -0.004492
  229 Fit      -0.004492
  230 Fit      -0.005017
  231 Fit      -0.006840
  232 Fit      -0.007175
  233 Fit      -0.007175
  234 Fit      -0.006536
  235 Fit      -0.006536
  236 Fit      -0.007184
  237 Fit      -0.007184
  238 Fit      -0.009551
  239 Fit      -0.009535
  240 Fit      -0.009535
  241 Fit      -0.009469
  242 Fit      -0.009102
  243 Fit      -0.009390
  244 Fit      -0.009390
  245 Fit      -0.009102
  246 Fit      -0.007217
  247 Fit      -0.006895
  248 Fit      -0.006895
  249 Fit      -0.007217
  250 Fit      -0.006895
  251 Fit      -0.006895
  252 Fit      -0.002850
  253 Fit      -0.002777
  254 Fit      -0.002297
  255 Fit      -0.001677
  256 Fit      -0.002625
  257 Fit      -0.002836
  258 Fit      -0.002836
  259 Fit      -0.002625
  260 Fit      -0.001677
  261 Fit      -0.002297
  262 Fit      -0.002777
  263 Fit       0.025604
  264 Fit       0.027471
  265 Fit       0.026842
  266 Fit       0.023803
  267 Fit       0.014695
  268 Fit       0.018706
  269 Fit       0.021432
  270 Fit       0.022632
  271 Fit       0.022230
  272 Fit       0.020250
  273 Fit       0.016836
  274 Fit       0.011016
  275 Fit       0.014476
  276 Fit       0.017189
  277 Fit       0.018895
  278 Fit       0.019476
  279 Fit       0.018895
  280 Fit       0.017189
  281 Fit       0.014476
  282 Fit       0.011016
  283 Fit       0.005165
  284 Fit       0.008210
  285 Fit       0.011250
  286 Fit       0.013762
  287 Fit       0.015465
  288 Fit       0.016217
  289 Fit       0.015965
  290 Fit       0.014726
  291 Fit       0.012593
  292 Fit       0.009770
  293 Fit       0.006641
  294 Fit      -0.000044
  295 Fit       0.001834
  296 Fit       0.004722
  297 Fit       0.007625
  298 Fit       0.009983
  299 Fit       0.011494
  300 Fit       0.012012
  301 Fit       0.011494
  302 Fit       0.009983
  303 Fit       0.007625
  304 Fit       0.004722
  305 Fit       0.001834
  306 Fit      -0.000044
  307 Fit      -0.006572
  308 Fit      -0.004053
  309 Fit      -0.000575
  310 Fit       0.002580
  311 Fit       0.004798
  312 Fit       0.005791
  313 Fit       0.005458
  314 Fit       0.003830
  315 Fit       0.001092
  316 Fit      -0.002332
  317 Fit      -0.005556
  318 Fit      -0.006692
  319 Fit      -0.014114
  320 Fit      -0.008880
  321 Fit      -0.005244
  322 Fit      -0.003632
  323 Fit      -0.004172
  324 Fit      -0.006825
  325 Fit      -0.011345
  326 Fit      -0.016995
  327 Fit      -0.020900
  328 Fit      -0.018384
  329 Fit      -0.020900
  330 Fit       0.023803
  331 Fit       0.026842
  332 Fit       0.027471
  333 Fit       0.025604
  334 Fit       0.016836
  335 Fit       0.020250
  336 Fit       0.022230
  337 Fit       0.022632
  338 Fit       0.021432
  339 Fit       0.018706
  340 Fit       0.014695
  341 Fit       0.011016
  342 Fit       0.014476
  343 Fit       0.017189
  344 Fit       0.018895
  345 Fit       0.019476
  346 Fit       0.018895
  347 Fit       0.017189
  348 Fit       0.014476
  349 Fit       0.011016
  350 Fit       0.006641
  351 Fit       0.009770
  352 Fit       0.012593
  353 Fit       0.014726
  354 Fit       0.015965
  355 Fit       0.016217
  356 Fit       0.015465
  357 Fit       0.013762
  358 Fit       0.011250
  359 Fit       0.008210
  360 Fit       0.005165
  361 Fit      -0.000044
  362 Fit      -0.000044
  363 Fit       0.001834
  364 Fit       0.004722
  365 Fit       0.007625
  366 Fit       0.009983
  367 Fit       0.011494
  368 Fit       0.012012
  369 Fit       0.011494
  370 Fit       0.009983
  371 Fit       0.007625
  372 Fit       0.004722
  373 Fit       0.001834
  374 Fit      -0.006572
  375 Fit      -0.006692
  376 Fit      -0.005556
  377 Fit      -0.002332
  378 Fit       0.001092
  379 Fit       0.003830
  380 Fit       0.005458
  381 Fit       0.005791
  382 Fit       0.004798
  383 Fit       0.002580
  384 Fit      -0.000575
  385 Fit      -0.004053
  386 Fit      -0.016995
  387 Fit      -0.011345
  388 Fit      -0.006825
  389 Fit      -0.004172
  390 Fit      -0.003632
  391 Fit      -0.005244
  392 Fit      -0.008880
  393 Fit      -0.014114
  394 Fit      -0.020900
  395 Fit      -0.018384
  396 Fit      -0.020900
  397 Fit       0.051765
  398 Fit       0.051765
  399 Fit       0.042288
  400 Fit       0.041095
  401 Fit       0.040920
  402 Fit       0.041095
  403 Fit       0.042288
  404 Fit       0.032983
  405 Fit       0.032796
  406 Fit       0.033717
  407 Fit       0.034689
  408 Fit       0.035186
  409 Fit       0.035015
  410 Fit       0.034239
  411 Fit       0.033200
  412 Fit       0.032654
  413 Fit       0.034093
  414 Fit       0.022145
  415 Fit       0.024439
  416 Fit       0.027018
  417 Fit       0.029220
  418 Fit       0.030731
  419 Fit       0.031401
  420 Fit       0.031176
  421 Fit       0.030074
  422 Fit       0.028191
  423 Fit       0.025746
  424 Fit       0.023193
  425 Fit       0.021508
  426 Fit       0.013502
  427 Fit       0.017384
  428 Fit       0.021180
  429 Fit       0.024353
  430 Fit       0.026696
  431 Fit       0.028123
  432 Fit       0.028602
  433 Fit       0.028123
  434 Fit       0.026696
  435 Fit       0.024353
  436 Fit       0.021180
  437 Fit       0.017384
  438 Fit       0.013502
  439 Fit       0.011906
  440 Fit       0.016772
  441 Fit       0.020742
  442 Fit       0.023676
  443 Fit       0.025545
  444 Fit       0.026345
  445 Fit       0.026078
  446 Fit       0.024744
  447 Fit       0.022342
  448 Fit       0.018882
  449 Fit       0.014433
  450 Fit       0.014463
  451 Fit       0.019036
  452 Fit       0.022284
  453 Fit       0.024220
  454 Fit       0.024862
  455 Fit       0.024220
  456 Fit       0.022284
  457 Fit       0.019036
  458 Fit       0.014463
  459 Fit       0.015491
  460 Fit       0.020268
  461 Fit       0.023314
  462 Fit       0.024617
  463 Fit       0.024183
  464 Fit       0.022009
  465 Fit       0.018092
  466 Fit       0.025514
  467 Fit       0.027357
  468 Fit       0.026737
  469 Fit       0.023724
  470 Fit       0.051765
  471 Fit       0.051765
  472 Fit       0.042288
  473 Fit       0.041095
  474 Fit       0.040920
  475 Fit       0.041095
  476 Fit       0.042288
  477 Fit       0.032983
  478 Fit       0.034093
  479 Fit       0.032654
  480 Fit       0.033200
  481 Fit       0.034239
  482 Fit       0.035015
  483 Fit       0.035186
  484 Fit       0.034689
  485 Fit       0.033717
  486 Fit       0.032796
  487 Fit       0.022145
  488 Fit       0.021508
  489 Fit       0.023193
  490 Fit       0.025746
  491 Fit       0.028191
  492 Fit       0.030074
  493 Fit       0.031176
  494 Fit       0.031401
  495 Fit       0.030731
  496 Fit       0.029220
  497 Fit       0.027018
  498 Fit       0.024439
  499 Fit       0.013502
  500 Fit       0.013502
  501 Fit       0.017384
  502 Fit       0.021180
  503 Fit       0.024353
  504 Fit       0.026696
  505 Fit       0.028123
  506 Fit       0.028602
  507 Fit       0.028123
  508 Fit       0.026696
  509 Fit       0.024353
  510 Fit       0.021180
  511 Fit       0.017384
  512 Fit       0.014433
  513 Fit       0.018882
  514 Fit       0.022342
  515 Fit       0.024744
  516 Fit       0.026078
  517 Fit       0.026345
  518 Fit       0.025545
  519 Fit       0.023676
  520 Fit       0.020742
  521 Fit       0.016772
  522 Fit       0.011906
  523 Fit       0.014463
  524 Fit       0.019036
  525 Fit       0.022284
  526 Fit       0.024220
  527 Fit       0.024862
  528 Fit       0.024220
  529 Fit       0.022284
  530 Fit       0.019036
  531 Fit       0.014463
  532 Fit       0.018092
  533 Fit       0.022009
  534 Fit       0.024183
  535 Fit       0.024617
  536 Fit       0.023314
  537 Fit       0.020268
  538 Fit       0.015491
  539 Fit       0.023724
  540 Fit       0.026737
  541 Fit       0.027357
  542 Fit       0.025514
  543 Fit       0.001253
  544 Fit       0.000318
  545 Fit      -0.002502
  546 Fit      -0.004627
  547 Fit      -0.000855
  548 Fit       0.001019
  549 Fit       0.001019
  550 Fit      -0.000855
  551 Fit      -0.004627
  552 Fit      -0.002502
  553 Fit       0.000318
  554 Fit      -0.002568
  555 Fit      -0.004097
  556 Fit      -0.008732
  557 Fit      -0.008732
  558 Fit      -0.004097
  559 Fit      -0.002568
  560 Fit      -0.004097
  561 Fit      -0.008732
  562 Fit      -0.008732
  563 Fit      -0.004097
  564 Fit      -0.008865
  565 Fit      -0.011060
  566 Fit      -0.013807
  567 Fit      -0.009413
  568 Fit      -0.009413
  569 Fit      -0.013807
  570 Fit      -0.011060
  571 Fit      -0.017011
  572 Fit      -0.019934
  573 Fit      -0.017743
  574 Fit      -0.017743
  575 Fit      -0.019934
  576 Fit      -0.026496
  577 Fit      -0.026496
  578 Fit      -0.036848
  579 Fit      -0.036848
  580 Fit      -0.047385
  581 Fit       0.047924
  582 Fit       0.045996
  583 Fit       0.045996
  584 Fit       0.040565
  585 Fit       0.040565
  586 Fit       0.032588
  587 Fit       0.036425
  588 Fit       0.033557
  589 Fit       0.033557
  590 Fit       0.036425
  591 Fit       0.023364
  592 Fit       0.026576
  593 Fit       0.026576
  594 Fit       0.023364
  595 Fit       0.026576
  596 Fit       0.026576
  597 Fit       0.014249
  598 Fit       0.016967
  599 Fit       0.016967
  600 Fit       0.014249
  601 Fit       0.016967
  602 Fit       0.016967
  603 Fit       0.006429
  604 Fit       0.008761
  605 Fit       0.015762
  606 Fit       0.021013
  607 Fit       0.011677
  608 Fit       0.007012
  609 Fit       0.007012
  610 Fit       0.011677
  611 Fit       0.021013
  612 Fit       0.015762
  613 Fit       0.008761
  614 Fit       0.000782
  615 Fit       0.002814
  616 Fit       0.008879
  617 Fit       0.018864
  618 Fit       0.013394
  619 Fit       0.005347
  620 Fit       0.001290
  621 Fit       0.001290
  622 Fit       0.005347
  623 Fit       0.013394
  624 Fit       0.018864
  625 Fit       0.008879
  626 Fit       0.002814
  627 Fit      -0.002212
  628 Fit      -0.000433
  629 Fit       0.004859
  630 Fit       0.013507
  631 Fit       0.025168
  632 Fit       0.025168
  633 Fit       0.013507
  634 Fit       0.004859
  635 Fit      -0.000433
  636 Fit      -0.002212
  637 Fit      -0.000433
  638 Fit       0.004859
  639 Fit       0.013507
  640 Fit       0.025168
  641 Fit       0.025168
  642 Fit       0.013507
  643 Fit       0.004859
  644 Fit      -0.000433
  645 Fit      -0.002484
  646 Fit      -0.000881
  647 Fit       0.003909
  648 Fit       0.011816
  649 Fit       0.022714
  650 Fit       0.029248
  651 Fit       0.016900
  652 Fit       0.007479
  653 Fit       0.001118
  654 Fit      -0.002083
  655 Fit      -0.002083
  656 Fit       0.001118
  657 Fit       0.007479
  658 Fit       0.016900
  659 Fit       0.029248
  660 Fit       0.022714
  661 Fit       0.011816
  662 Fit       0.003909
  663 Fit      -0.000881
  664 Fit       0.047580
  665 Fit       0.046435
  666 Fit       0.048004
  667 Fit       0.048004
  668 Fit       0.046435
  669 Fit       0.047448
  670 Fit       0.047448
  671 Fit       0.043016
  672 Fit       0.045621
  673 Fit       0.048331
  674 Fit       0.049413
  675 Fit       0.048331
  676 Fit       0.045621
  677 Fit       0.043016
  678 Fit       0.043399
  679 Fit       0.043399
  680 Fit       0.037403
  681 Fit       0.041433
  682 Fit       0.045642
  683 Fit       0.048773
  684 Fit       0.050213
  685 Fit       0.049726
  686 Fit       0.047391
  687 Fit       0.043614
  688 Fit       0.039278
  689 Fit       0.036153
  690 Fit       0.029838
  691 Fit       0.035846
  692 Fit       0.041599
  693 Fit       0.046245
  694 Fit       0.049383
  695 Fit       0.050775
  696 Fit       0.050308
  697 Fit       0.048021
  698 Fit       0.044091
  699 Fit       0.038824
  700 Fit       0.032787
  701 Fit       0.029369
  702 Fit       0.036820
  703 Fit       0.042882
  704 Fit       0.047407
  705 Fit       0.050242
  706 Fit       0.051214
  707 Fit       0.050242
  708 Fit       0.047407
  709 Fit       0.042882
  710 Fit       0.036820
  711 Fit       0.029369
  712 Fit       0.023351
  713 Fit       0.032686
  714 Fit       0.040192
  715 Fit       0.046002
  716 Fit       0.049996
  717 Fit       0.051821
  718 Fit       0.051203
  719 Fit       0.048245
  720 Fit       0.043309
  721 Fit       0.036656
  722 Fit       0.028258
  723 Fit       0.030591
  724 Fit       0.039538
  725 Fit       0.046922
  726 Fit       0.052308
  727 Fit       0.052308
  728 Fit       0.046922
  729 Fit       0.039538
  730 Fit       0.030591
  731 Fit       0.047580
  732 Fit       0.046435
  733 Fit       0.047448
  734 Fit       0.047448
  735 Fit       0.046435
  736 Fit       0.048004
  737 Fit       0.048004
  738 Fit       0.043016
  739 Fit       0.043399
  740 Fit       0.043399
  741 Fit       0.043016
  742 Fit       0.045621
  743 Fit       0.048331
  744 Fit       0.049413
  745 Fit       0.048331
  746 Fit       0.045621
  747 Fit       0.037403
  748 Fit       0.036153
  749 Fit       0.039278
  750 Fit       0.043614
  751 Fit       0.047391
  752 Fit       0.049726
  753 Fit       0.050213
  754 Fit       0.048773
  755 Fit       0.045642
  756 Fit       0.041433
  757 Fit       0.029838
  758 Fit       0.032787
  759 Fit       0.038824
  760 Fit       0.044091
  761 Fit       0.048021
  762 Fit       0.050308
  763 Fit       0.050775
  764 Fit       0.049383
  765 Fit       0.046245
  766 Fit       0.041599
  767 Fit       0.035846
  768 Fit       0.029369
  769 Fit       0.036820
  770 Fit       0.042882
  771 Fit       0.047407
  772 Fit       0.050242
  773 Fit       0.051214
  774 Fit       0.050242
  775 Fit       0.047407
  776 Fit       0.042882
  777 Fit       0.036820
  778 Fit       0.029369
  779 Fit       0.028258
  780 Fit       0.036656
  781 Fit       0.043309
  782 Fit       0.048245
  783 Fit       0.051203
  784 Fit       0.051821
  785 Fit       0.049996
  786 Fit       0.046002
  787 Fit       0.040192
  788 Fit       0.032686
  789 Fit       0.023351
  790 Fit       0.030591
  791 Fit       0.039538
  792 Fit       0.046922
  793 Fit       0.052308
  794 Fit       0.052308
  795 Fit       0.046922
  796 Fit       0.039538
  797 Fit       0.030591
  798 Fit      -0.012538
  799 Fit      -0.016730
  800 Fit      -0.017156
  801 Fit      -0.017416
  802 Fit      -0.015106
  803 Fit      -0.008975
  804 Fit      -0.012795
  805 Fit      -0.019973
  806 Fit      -0.024357
  807 Fit      -0.026402
  808 Fit      -0.026502
  809 Fit      -0.025282
  810 Fit      -0.023759
  811 Fit      -0.023075
  812 Fit      -0.023759
  813 Fit      -0.025282
  814 Fit      -0.026502
  815 Fit      -0.026402
  816 Fit      -0.024357
  817 Fit      -0.019973
  818 Fit      -0.012795
  819 Fit      -0.020838
  820 Fit      -0.026662
  821 Fit      -0.030397
  822 Fit      -0.032392
  823 Fit      -0.033028
  824 Fit      -0.032773
  825 Fit      -0.032190
  826 Fit      -0.031817
  827 Fit      -0.031951
  828 Fit      -0.032486
  829 Fit      -0.032978
  830 Fit      -0.032854
  831 Fit      -0.031590
  832 Fit      -0.028768
  833 Fit      -0.024035
  834 Fit      -0.017022
  835 Fit      -0.028424
  836 Fit      -0.032732
  837 Fit      -0.035504
  838 Fit      -0.036958
  839 Fit      -0.037413
  840 Fit      -0.037257
  841 Fit      -0.036894
  842 Fit      -0.036667
  843 Fit      -0.036748
  844 Fit      -0.037077
  845 Fit      -0.037386
  846 Fit      -0.037288
  847 Fit      -0.036378
  848 Fit      -0.034299
  849 Fit      -0.030778
  850 Fit      -0.025672
  851 Fit      -0.022551
  852 Fit      -0.035469
  853 Fit      -0.038308
  854 Fit      -0.040052
  855 Fit      -0.040813
  856 Fit      -0.040861
  857 Fit      -0.040540
  858 Fit      -0.040181
  859 Fit      -0.040031
  860 Fit      -0.040181
  861 Fit      -0.040540
  862 Fit      -0.040861
  863 Fit      -0.040813
  864 Fit      -0.040052
  865 Fit      -0.038308
  866 Fit      -0.035469
  867 Fit      -0.031755
  868 Fit      -0.031755
  869 Fit      -0.041900
  870 Fit      -0.043475
  871 Fit      -0.044247
  872 Fit      -0.044285
  873 Fit      -0.043884
  874 Fit      -0.043398
  875 Fit      -0.043129
  876 Fit      -0.043223
  877 Fit      -0.043630
  878 Fit      -0.044117
  879 Fit      -0.044343
  880 Fit      -0.043964
  881 Fit      -0.042778
  882 Fit      -0.040911
  883 Fit      -0.039200
  884 Fit      -0.039030
  885 Fit      -0.039939
  886 Fit      -0.047600
  887 Fit      -0.048045
  888 Fit      -0.048001
  889 Fit      -0.047521
  890 Fit      -0.046909
  891 Fit      -0.046497
  892 Fit      -0.046497
  893 Fit      -0.046909
  894 Fit      -0.047521
  895 Fit      -0.048001
  896 Fit      -0.048045
  897 Fit      -0.047600
  898 Fit      -0.047169
  899 Fit      -0.048237
  900 Fit      -0.048237
  901 Fit      -0.047169
  902 Fit      -0.052384
  903 Fit      -0.051929
  904 Fit      -0.051247
  905 Fit      -0.050495
  906 Fit      -0.050071
  907 Fit      -0.050220
  908 Fit      -0.050855
  909 Fit      -0.051617
  910 Fit      -0.052172
  911 Fit      -0.052661
  912 Fit      -0.054119
  913 Fit      -0.058114
  914 Fit      -0.061019
  915 Fit      -0.055739
  916 Fit      -0.053166
  917 Fit      -0.056028
  918 Fit      -0.054952
  919 Fit      -0.054047
  920 Fit      -0.053660
  921 Fit      -0.054047
  922 Fit      -0.054952
  923 Fit      -0.056028
  924 Fit      -0.057606
  925 Fit      -0.060195
  926 Fit      -0.061848
  927 Fit      -0.060195
  928 Fit      -0.057606
  929 Fit      -0.058318
  930 Fit      -0.057012
  931 Fit      -0.057012
  932 Fit      -0.058318
  933 Fit      -0.060102
  934 Fit      -0.060102
  935 Fit      -0.059100
  936 Fit      -0.008975
  937 Fit      -0.015106
  938 Fit      -0.017416
  939 Fit      -0.017156
  940 Fit      -0.016730
  941 Fit      -0.012538
  942 Fit      -0.012795
  943 Fit      -0.012795
  944 Fit      -0.019973
  945 Fit      -0.024357
  946 Fit      -0.026402
  947 Fit      -0.026502
  948 Fit      -0.025282
  949 Fit      -0.023759
  950 Fit      -0.023075
  951 Fit      -0.023759
  952 Fit      -0.025282
  953 Fit      -0.026502
  954 Fit      -0.026402
  955 Fit      -0.024357
  956 Fit      -0.019973
  957 Fit      -0.020838
  958 Fit      -0.017022
  959 Fit      -0.024035
  960 Fit      -0.028768
  961 Fit      -0.031590
  962 Fit      -0.032854
  963 Fit      -0.032978
  964 Fit      -0.032486
  965 Fit      -0.031951
  966 Fit      -0.031817
  967 Fit      -0.032190
  968 Fit      -0.032773
  969 Fit      -0.033028
  970 Fit      -0.032392
  971 Fit      -0.030397
  972 Fit      -0.026662
  973 Fit      -0.028424
  974 Fit      -0.022551
  975 Fit      -0.025672
  976 Fit      -0.030778
  977 Fit      -0.034299
  978 Fit      -0.036378
  979 Fit      -0.037288
  980 Fit      -0.037386
  981 Fit      -0.037077
  982 Fit      -0.036748
  983 Fit      -0.036667
  984 Fit      -0.036894
  985 Fit      -0.037257
  986 Fit      -0.037413
  987 Fit      -0.036958
  988 Fit      -0.035504
  989 Fit      -0.032732
  990 Fit      -0.035469
  991 Fit      -0.031755
  992 Fit      -0.031755
  993 Fit      -0.035469
  994 Fit      -0.038308
  995 Fit      -0.040052
  996 Fit      -0.040813
  997 Fit      -0.040861
  998 Fit      -0.040540
  999 Fit      -0.040181
 1000 Fit      -0.040031
 1001 Fit      -0.040181
 1002 Fit      -0.040540
 1003 Fit      -0.040861
 1004 Fit      -0.040813
 1005 Fit      -0.040052
 1006 Fit      -0.038308
 1007 Fit      -0.041900
 1008 Fit      -0.039939
 1009 Fit      -0.039030
 1010 Fit      -0.039200
 1011 Fit      -0.040911
 1012 Fit      -0.042778
 1013 Fit      -0.043964
 1014 Fit      -0.044343
 1015 Fit      -0.044117
 1016 Fit      -0.043630
 1017 Fit      -0.043223
 1018 Fit      -0.043129
 1019 Fit      -0.043398
 1020 Fit      -0.043884
 1021 Fit      -0.044285
 1022 Fit      -0.044247
 1023 Fit      -0.043475
 1024 Fit      -0.047600
 1025 Fit      -0.047169
 1026 Fit      -0.048237
 1027 Fit      -0.048237
 1028 Fit      -0.047169
 1029 Fit      -0.047600
 1030 Fit      -0.048045
 1031 Fit      -0.048001
 1032 Fit      -0.047521
 1033 Fit      -0.046909
 1034 Fit      -0.046497
 1035 Fit      -0.046497
 1036 Fit      -0.046909
 1037 Fit      -0.047521
 1038 Fit      -0.048001
 1039 Fit      -0.048045
 1040 Fit      -0.052384
 1041 Fit      -0.053166
 1042 Fit      -0.055739
 1043 Fit      -0.061019
 1044 Fit      -0.058114
 1045 Fit      -0.054119
 1046 Fit      -0.052661
 1047 Fit      -0.052172
 1048 Fit      -0.051617
 1049 Fit      -0.050855
 1050 Fit      -0.050220
 1051 Fit      -0.050071
 1052 Fit      -0.050495
 1053 Fit      -0.051247
 1054 Fit      -0.051929
 1055 Fit      -0.056028
 1056 Fit      -0.057606
 1057 Fit      -0.060195
 1058 Fit      -0.061848
 1059 Fit      -0.060195
 1060 Fit      -0.057606
 1061 Fit      -0.056028
 1062 Fit      -0.054952
 1063 Fit      -0.054047
 1064 Fit      -0.053660
 1065 Fit      -0.054047
 1066 Fit      -0.054952
 1067 Fit      -0.058318
 1068 Fit      -0.060102
 1069 Fit      -0.060102
 1070 Fit      -0.058318
 1071 Fit      -0.057012
 1072 Fit      -0.057012
 1073 Fit      -0.059100
 1074 Fit      -0.007232
 1075 Fit      -0.005268
 1076 Fit      -0.002471
 1077 Fit       0.001123
 1078 Fit       0.005419
 1079 Fit       0.010205
 1080 Fit       0.012663
 1081 Fit       0.007771
 1082 Fit       0.003193
 1083 Fit      -0.000770
 1084 Fit      -0.003972
 1085 Fit      -0.006354
 1086 Fit      -0.007908
 1087 Fit      -0.008713
 1088 Fit      -0.008988
 1089 Fit      -0.008898
 1090 Fit      -0.008394
 1091 Fit      -0.006461
 1092 Fit      -0.004650
 1093 Fit      -0.002275
 1094 Fit       0.000750
 1095 Fit       0.004472
 1096 Fit       0.004472
 1097 Fit       0.000750
 1098 Fit      -0.002275
 1099 Fit      -0.004650
 1100 Fit      -0.006461
 1101 Fit      -0.007815
 1102 Fit      -0.007815
 1103 Fit      -0.006015
 1104 Fit      -0.004449
 1105 Fit      -0.002382
 1106 Fit       0.000388
 1107 Fit       0.002097
 1108 Fit      -0.001098
 1109 Fit      -0.003490
 1110 Fit      -0.005282
 1111 Fit      -0.006670
 1112 Fit      -0.007267
 1113 Fit      -0.005725
 1114 Fit      -0.004853
 1115 Fit      -0.003276
 1116 Fit      -0.000700
 1117 Fit      -0.002133
 1118 Fit      -0.004170
 1119 Fit      -0.005361
 1120 Fit      -0.005967
 1121 Fit      -0.005585
 1122 Fit      -0.006312
 1123 Fit      -0.005733
 1124 Fit      -0.004884
 1125 Fit      -0.006197
 1126 Fit      -0.006103
 1127 Fit      -0.007232
 1128 Fit      -0.008394
 1129 Fit      -0.008898
 1130 Fit      -0.008988
 1131 Fit      -0.008713
 1132 Fit      -0.007908
 1133 Fit      -0.006354
 1134 Fit      -0.003972
 1135 Fit      -0.000770
 1136 Fit       0.003193
 1137 Fit       0.007771
 1138 Fit       0.012663
 1139 Fit       0.010205
 1140 Fit       0.005419
 1141 Fit       0.001123
 1142 Fit      -0.002471
 1143 Fit      -0.005268
 1144 Fit      -0.006461
 1145 Fit      -0.007815
 1146 Fit      -0.007815
 1147 Fit      -0.006461
 1148 Fit      -0.004650
 1149 Fit      -0.002275
 1150 Fit       0.000750
 1151 Fit       0.004472
 1152 Fit       0.004472
 1153 Fit       0.000750
 1154 Fit      -0.002275
 1155 Fit      -0.004650
 1156 Fit      -0.006015
 1157 Fit      -0.007267
 1158 Fit      -0.006670
 1159 Fit      -0.005282
 1160 Fit      -0.003490
 1161 Fit      -0.001098
 1162 Fit       0.002097
 1163 Fit       0.000388
 1164 Fit      -0.002382
 1165 Fit      -0.004449
 1166 Fit      -0.005725
 1167 Fit      -0.005967
 1168 Fit      -0.005361
 1169 Fit      -0.004170
 1170 Fit      -0.002133
 1171 Fit      -0.000700
 1172 Fit      -0.003276
 1173 Fit      -0.004853
 1174 Fit      -0.005585
 1175 Fit      -0.006103
 1176 Fit      -0.006197
 1177 Fit      -0.004884
 1178 Fit      -0.005733
 1179 Fit      -0.006312
 1180 Fit       0.014871
 1181 Fit       0.019875
 1182 Fit       0.017351
 1183 Fit       0.005114
 1184 Fit       0.008351
 1185 Fit       0.012138
 1186 Fit       0.014302
 1187 Fit       0.010166
 1188 Fit       0.006670
 1189 Fit       0.001036
 1190 Fit       0.003469
 1191 Fit       0.006694
 1192 Fit       0.010779
 1193 Fit       0.008621
 1194 Fit       0.004982
 1195 Fit       0.002151
 1196 Fit       0.000144
 1197 Fit      -0.002473
 1198 Fit      -0.000421
 1199 Fit       0.002462
 1200 Fit       0.006164
 1201 Fit       0.008331
 1202 Fit       0.004209
 1203 Fit       0.000919
 1204 Fit      -0.001553
 1205 Fit      -0.003171
 1206 Fit      -0.003641
 1207 Fit      -0.005246
 1208 Fit      -0.003339
 1209 Fit      -0.000563
 1210 Fit       0.003024
 1211 Fit       0.007349
 1212 Fit       0.007349
 1213 Fit       0.003024
 1214 Fit      -0.000563
 1215 Fit      -0.003339
 1216 Fit      -0.005246
 1217 Fit      -0.006272
 1218 Fit      -0.006272
 1219 Fit      -0.007183
 1220 Fit      -0.005216
 1221 Fit      -0.002257
 1222 Fit       0.001595
 1223 Fit       0.006179
 1224 Fit       0.011235
 1225 Fit       0.008670
 1226 Fit       0.003808
 1227 Fit      -0.000434
 1228 Fit      -0.003856
 1229 Fit      -0.006328
 1230 Fit      -0.007783
 1231 Fit      -0.008283
 1232 Fit      -0.008182
 1233 Fit      -0.008269
 1234 Fit      -0.008140
 1235 Fit       0.017351
 1236 Fit       0.019875
 1237 Fit       0.014871
 1238 Fit       0.005114
 1239 Fit       0.006670
 1240 Fit       0.010166
 1241 Fit       0.014302
 1242 Fit       0.012138
 1243 Fit       0.008351
 1244 Fit       0.001036
 1245 Fit       0.000144
 1246 Fit       0.002151
 1247 Fit       0.004982
 1248 Fit       0.008621
 1249 Fit       0.010779
 1250 Fit       0.006694
 1251 Fit       0.003469
 1252 Fit      -0.002473
 1253 Fit      -0.003641
 1254 Fit      -0.003171
 1255 Fit      -0.001553
 1256 Fit       0.000919
 1257 Fit       0.004209
 1258 Fit       0.008331
 1259 Fit       0.006164
 1260 Fit       0.002462
 1261 Fit      -0.000421
 1262 Fit      -0.005246
 1263 Fit      -0.006272
 1264 Fit      -0.006272
 1265 Fit      -0.005246
 1266 Fit      -0.003339
 1267 Fit      -0.000563
 1268 Fit       0.003024
 1269 Fit       0.007349
 1270 Fit       0.007349
 1271 Fit       0.003024
 1272 Fit      -0.000563
 1273 Fit      -0.003339
 1274 Fit      -0.007183
 1275 Fit      -0.008140
 1276 Fit      -0.008269
 1277 Fit      -0.008182
 1278 Fit      -0.008283
 1279 Fit      -0.007783
 1280 Fit      -0.006328
 1281 Fit      -0.003856
 1282 Fit      -0.000434
 1283 Fit       0.003808
 1284 Fit       0.008670
 1285 Fit       0.011235
 1286 Fit       0.006179
 1287 Fit       0.001595
 1288 Fit      -0.002257
 1289 Fit      -0.005216
 1290 Fit       0.000080
 1291 Fit       0.000536
 1292 Fit       0.001980
 1293 Fit       0.003145
 1294 Fit       0.001123
 1295 Fit       0.000193
 1296 Fit       0.000193
 1297 Fit       0.001123
 1298 Fit       0.003145
 1299 Fit       0.001980
 1300 Fit       0.000536
 1301 Fit      -0.001544
 1302 Fit      -0.001514
 1303 Fit      -0.001514
 1304 Fit      -0.001544
 1305 Fit      -0.001514
 1306 Fit      -0.001514
 1307 Fit      -0.004112
 1308 Fit      -0.004459
 1309 Fit      -0.004202
 1310 Fit      -0.004202
 1311 Fit      -0.004459
 1312 Fit      -0.006643
 1313 Fit      -0.006831
 1314 Fit      -0.006831
 1315 Fit      -0.008245
 1316 Fit      -0.008829
 1317 Fit      -0.008902
 1318 Fit      -0.008935
 1319 Fit      -0.008935
 1320 Fit      -0.008354
 1321 Fit      -0.008251
 1322 Fit      -0.008333
 1323 Fit      -0.008333
 1324 Fit      -0.008251
 1325 Fit      -0.007140
 1326 Fit      -0.007033
 1327 Fit      -0.007033
 1328 Fit      -0.007140
 1329 Fit      -0.007033
 1330 Fit      -0.007033
 1331 Fit      -0.005271
 1332 Fit      -0.005317
 1333 Fit      -0.005340
 1334 Fit      -0.005245
 1335 Fit      -0.005348
 1336 Fit      -0.005284
 1337 Fit      -0.005284
 1338 Fit      -0.005348
 1339 Fit      -0.005245
 1340 Fit      -0.005340
 1341 Fit      -0.005317
 1342 Fit       0.020380
 1343 Fit       0.021844
 1344 Fit       0.021844
 1345 Fit       0.020380
 1346 Fit       0.012498
 1347 Fit       0.015200
 1348 Fit       0.017042
 1349 Fit       0.017974
 1350 Fit       0.017974
 1351 Fit       0.017042
 1352 Fit       0.015200
 1353 Fit       0.012498
 1354 Fit       0.006570
 1355 Fit       0.009404
 1356 Fit       0.011779
 1357 Fit       0.013555
 1358 Fit       0.014649
 1359 Fit       0.015018
 1360 Fit       0.014649
 1361 Fit       0.013555
 1362 Fit       0.011779
 1363 Fit       0.009404
 1364 Fit       0.006570
 1365 Fit       0.004124
 1366 Fit       0.006532
 1367 Fit       0.008654
 1368 Fit       0.010319
 1369 Fit       0.011422
 1370 Fit       0.011904
 1371 Fit       0.011743
 1372 Fit       0.010945
 1373 Fit       0.009552
 1374 Fit       0.007641
 1375 Fit       0.005349
 1376 Fit       0.002892
 1377 Fit      -0.001139
 1378 Fit       0.001062
 1379 Fit       0.003335
 1380 Fit       0.005351
 1381 Fit       0.006906
 1382 Fit       0.007880
 1383 Fit       0.008211
 1384 Fit       0.007880
 1385 Fit       0.006906
 1386 Fit       0.005351
 1387 Fit       0.003335
 1388 Fit       0.001062
 1389 Fit      -0.001139
 1390 Fit      -0.005932
 1391 Fit      -0.003509
 1392 Fit      -0.001075
 1393 Fit       0.000983
 1394 Fit       0.002448
 1395 Fit       0.003206
 1396 Fit       0.003206
 1397 Fit       0.002448
 1398 Fit       0.000983
 1399 Fit      -0.001075
 1400 Fit      -0.003509
 1401 Fit      -0.005932
 1402 Fit      -0.013653
 1403 Fit      -0.010050
 1404 Fit      -0.006979
 1405 Fit      -0.004800
 1406 Fit      -0.003678
 1407 Fit      -0.003678
 1408 Fit      -0.004800
 1409 Fit      -0.006979
 1410 Fit      -0.010050
 1411 Fit      -0.013653
 1412 Fit      -0.015661
 1413 Fit      -0.013708
 1414 Fit      -0.013708
 1415 Fit      -0.015661
 1416 Fit       0.020380
 1417 Fit       0.021844
 1418 Fit       0.021844
 1419 Fit       0.020380
 1420 Fit       0.012498
 1421 Fit       0.015200
 1422 Fit       0.017042
 1423 Fit       0.017974
 1424 Fit       0.017974
 1425 Fit       0.017042
 1426 Fit       0.015200
 1427 Fit       0.012498
 1428 Fit       0.006570
 1429 Fit       0.009404
 1430 Fit       0.011779
 1431 Fit       0.013555
 1432 Fit       0.014649
 1433 Fit       0.015018
 1434 Fit       0.014649
 1435 Fit       0.013555
 1436 Fit       0.011779
 1437 Fit       0.009404
 1438 Fit       0.006570
 1439 Fit       0.002892
 1440 Fit       0.005349
 1441 Fit       0.007641
 1442 Fit       0.009552
 1443 Fit       0.010945
 1444 Fit       0.011743
 1445 Fit       0.011904
 1446 Fit       0.011422
 1447 Fit       0.010319
 1448 Fit       0.008654
 1449 Fit       0.006532
 1450 Fit       0.004124
 1451 Fit      -0.001139
 1452 Fit       0.001062
 1453 Fit       0.003335
 1454 Fit       0.005351
 1455 Fit       0.006906
 1456 Fit       0.007880
 1457 Fit       0.008211
 1458 Fit       0.007880
 1459 Fit       0.006906
 1460 Fit       0.005351
 1461 Fit       0.003335
 1462 Fit       0.001062
 1463 Fit      -0.001139
 1464 Fit      -0.005932
 1465 Fit      -0.003509
 1466 Fit      -0.001075
 1467 Fit       0.000983
 1468 Fit       0.002448
 1469 Fit       0.003206
 1470 Fit       0.003206
 1471 Fit       0.002448
 1472 Fit       0.000983
 1473 Fit      -0.001075
 1474 Fit      -0.003509
 1475 Fit      -0.005932
 1476 Fit      -0.013653
 1477 Fit      -0.010050
 1478 Fit      -0.006979
 1479 Fit      -0.004800
 1480 Fit      -0.003678
 1481 Fit      -0.003678
 1482 Fit      -0.004800
 1483 Fit      -0.006979
 1484 Fit      -0.010050
 1485 Fit      -0.013653
 1486 Fit      -0.015661
 1487 Fit      -0.013708
 1488 Fit      -0.013708
 1489 Fit      -0.015661
 1490 Fit       0.040211
 1491 Fit       0.039595
 1492 Fit       0.040211
 1493 Fit       0.033711
 1494 Fit       0.033121
 1495 Fit       0.033088
 1496 Fit       0.033171
 1497 Fit       0.033171
 1498 Fit       0.033088
 1499 Fit       0.033121
 1500 Fit       0.033711
 1501 Fit       0.025007
 1502 Fit       0.025741
 1503 Fit       0.026768
 1504 Fit       0.027782
 1505 Fit       0.028568
 1506 Fit       0.028992
 1507 Fit       0.028992
 1508 Fit       0.028568
 1509 Fit       0.027782
 1510 Fit       0.026768
 1511 Fit       0.025741
 1512 Fit       0.025007
 1513 Fit       0.019098
 1514 Fit       0.021196
 1515 Fit       0.023039
 1516 Fit       0.024502
 1517 Fit       0.025512
 1518 Fit       0.026027
 1519 Fit       0.026027
 1520 Fit       0.025512
 1521 Fit       0.024502
 1522 Fit       0.023039
 1523 Fit       0.021196
 1524 Fit       0.019098
 1525 Fit       0.013645
 1526 Fit       0.016627
 1527 Fit       0.019168
 1528 Fit       0.021187
 1529 Fit       0.022648
 1530 Fit       0.023530
 1531 Fit       0.023824
 1532 Fit       0.023530
 1533 Fit       0.022648
 1534 Fit       0.021187
 1535 Fit       0.019168
 1536 Fit       0.016627
 1537 Fit       0.013645
 1538 Fit       0.012984
 1539 Fit       0.016119
 1540 Fit       0.018592
 1541 Fit       0.020400
 1542 Fit       0.021549
 1543 Fit       0.022040
 1544 Fit       0.021876
 1545 Fit       0.021057
 1546 Fit       0.019579
 1547 Fit       0.017438
 1548 Fit       0.014633
 1549 Fit       0.011177
 1550 Fit       0.010782
 1551 Fit       0.014467
 1552 Fit       0.017288
 1553 Fit       0.019279
 1554 Fit       0.020464
 1555 Fit       0.020858
 1556 Fit       0.020464
 1557 Fit       0.019279
 1558 Fit       0.017288
 1559 Fit       0.014467
 1560 Fit       0.010782
 1561 Fit       0.014460
 1562 Fit       0.017469
 1563 Fit       0.019450
 1564 Fit       0.020434
 1565 Fit       0.020434
 1566 Fit       0.019450
 1567 Fit       0.017469
 1568 Fit       0.014460
 1569 Fit       0.020390
 1570 Fit       0.021823
 1571 Fit       0.021823
 1572 Fit       0.020390
 1573 Fit       0.040211
 1574 Fit       0.039595
 1575 Fit       0.040211
 1576 Fit       0.033711
 1577 Fit       0.033121
 1578 Fit       0.033088
 1579 Fit       0.033171
 1580 Fit       0.033171
 1581 Fit       0.033088
 1582 Fit       0.033121
 1583 Fit       0.033711
 1584 Fit       0.025007
 1585 Fit       0.025007
 1586 Fit       0.025741
 1587 Fit       0.026768
 1588 Fit       0.027782
 1589 Fit       0.028568
 1590 Fit       0.028992
 1591 Fit       0.028992
 1592 Fit       0.028568
 1593 Fit       0.027782
 1594 Fit       0.026768
 1595 Fit       0.025741
 1596 Fit       0.019098
 1597 Fit       0.021196
 1598 Fit       0.023039
 1599 Fit       0.024502
 1600 Fit       0.025512
 1601 Fit       0.026027
 1602 Fit       0.026027
 1603 Fit       0.025512
 1604 Fit       0.024502
 1605 Fit       0.023039
 1606 Fit       0.021196
 1607 Fit       0.019098
 1608 Fit       0.013645
 1609 Fit       0.016627
 1610 Fit       0.019168
 1611 Fit       0.021187
 1612 Fit       0.022648
 1613 Fit       0.023530
 1614 Fit       0.023824
 1615 Fit       0.023530
 1616 Fit       0.022648
 1617 Fit       0.021187
 1618 Fit       0.019168
 1619 Fit       0.016627
 1620 Fit       0.013645
 1621 Fit       0.011177
 1622 Fit       0.014633
 1623 Fit       0.017438
 1624 Fit       0.019579
 1625 Fit       0.021057
 1626 Fit       0.021876
 1627 Fit       0.022040
 1628 Fit       0.021549
 1629 Fit       0.020400
 1630 Fit       0.018592
 1631 Fit       0.016119
 1632 Fit       0.012984
 1633 Fit       0.010782
 1634 Fit       0.014467
 1635 Fit       0.017288
 1636 Fit       0.019279
 1637 Fit       0.020464
 1638 Fit       0.020858
 1639 Fit       0.020464
 1640 Fit       0.019279
 1641 Fit       0.017288
 1642 Fit       0.014467
 1643 Fit       0.010782
 1644 Fit       0.014460
 1645 Fit       0.017469
 1646 Fit       0.019450
 1647 Fit       0.020434
 1648 Fit       0.020434
 1649 Fit       0.019450
 1650 Fit       0.017469
 1651 Fit       0.014460
 1652 Fit       0.020390
 1653 Fit       0.021823
 1654 Fit       0.021823
 1655 Fit       0.020390
 1656 Fit      -0.004380
 1657 Fit      -0.004945
 1658 Fit      -0.006625
 1659 Fit      -0.009359
 1660 Fit      -0.007867
 1661 Fit      -0.005649
 1662 Fit      -0.004521
 1663 Fit      -0.004521
 1664 Fit      -0.005649
 1665 Fit      -0.007867
 1666 Fit      -0.009359
 1667 Fit      -0.006625
 1668 Fit      -0.004945
 1669 Fit      -0.007384
 1670 Fit      -0.008255
 1671 Fit      -0.010876
 1672 Fit      -0.010876
 1673 Fit      -0.008255
 1674 Fit      -0.007384
 1675 Fit      -0.008255
 1676 Fit      -0.010876
 1677 Fit      -0.010876
 1678 Fit      -0.008255
 1679 Fit      -0.012049
 1680 Fit      -0.013268
 1681 Fit      -0.014794
 1682 Fit      -0.012353
 1683 Fit      -0.012353
 1684 Fit      -0.014794
 1685 Fit      -0.013268
 1686 Fit      -0.017967
 1687 Fit      -0.019572
 1688 Fit      -0.018369
 1689 Fit      -0.018369
 1690 Fit      -0.019572
 1691 Fit      -0.024811
 1692 Fit      -0.025296
 1693 Fit      -0.025296
 1694 Fit      -0.032275
 1695 Fit      -0.039984
 1696 Fit       0.040472
 1697 Fit       0.039381
 1698 Fit       0.041155
 1699 Fit       0.041155
 1700 Fit       0.039381
 1701 Fit       0.041155
 1702 Fit       0.041155
 1703 Fit       0.036257
 1704 Fit       0.038426
 1705 Fit       0.038426
 1706 Fit       0.036257
 1707 Fit       0.038426
 1708 Fit       0.038426
 1709 Fit       0.031517
 1710 Fit       0.033492
 1711 Fit       0.033492
 1712 Fit       0.031517
 1713 Fit       0.033492
 1714 Fit       0.033492
 1715 Fit       0.025755
 1716 Fit       0.027565
 1717 Fit       0.029782
 1718 Fit       0.026210
 1719 Fit       0.026210
 1720 Fit       0.029782
 1721 Fit       0.027565
 1722 Fit       0.019633
 1723 Fit       0.021292
 1724 Fit       0.026187
 1725 Fit       0.023347
 1726 Fit       0.020049
 1727 Fit       0.020049
 1728 Fit       0.023347
 1729 Fit       0.026187
 1730 Fit       0.021292
 1731 Fit       0.013784
 1732 Fit       0.015210
 1733 Fit       0.019455
 1734 Fit       0.022596
 1735 Fit       0.016986
 1736 Fit       0.014141
 1737 Fit       0.014141
 1738 Fit       0.016986
 1739 Fit       0.022596
 1740 Fit       0.019455
 1741 Fit       0.015210
 1742 Fit       0.008725
 1743 Fit       0.010051
 1744 Fit       0.014000
 1745 Fit       0.020464
 1746 Fit       0.016929
 1747 Fit       0.011702
 1748 Fit       0.009057
 1749 Fit       0.009057
 1750 Fit       0.011702
 1751 Fit       0.016929
 1752 Fit       0.020464
 1753 Fit       0.014000
 1754 Fit       0.010051
 1755 Fit       0.004808
 1756 Fit       0.005979
 1757 Fit       0.009465
 1758 Fit       0.015177
 1759 Fit       0.018812
 1760 Fit       0.012052
 1761 Fit       0.007436
 1762 Fit       0.005101
 1763 Fit       0.005101
 1764 Fit       0.007436
 1765 Fit       0.012052
 1766 Fit       0.018812
 1767 Fit       0.015177
 1768 Fit       0.009465
 1769 Fit       0.005979
 1770 Fit       0.002167
 1771 Fit       0.003200
 1772 Fit       0.006278
 1773 Fit       0.011338
 1774 Fit       0.018244
 1775 Fit       0.018244
 1776 Fit       0.011338
 1777 Fit       0.006278
 1778 Fit       0.003200
 1779 Fit       0.002167
 1780 Fit       0.003200
 1781 Fit       0.006278
 1782 Fit       0.011338
 1783 Fit       0.018244
 1784 Fit       0.018244
 1785 Fit       0.011338
 1786 Fit       0.006278
 1787 Fit       0.003200
 1788 Fit       0.000685
 1789 Fit       0.001609
 1790 Fit       0.004382
 1791 Fit       0.009008
 1792 Fit       0.015496
 1793 Fit       0.012018
 1794 Fit       0.006464
 1795 Fit       0.002764
 1796 Fit       0.000916
 1797 Fit       0.000916
 1798 Fit       0.002764
 1799 Fit       0.006464
 1800 Fit       0.012018
 1801 Fit       0.015496
 1802 Fit       0.009008
 1803 Fit       0.004382
 1804 Fit       0.001609
 1805 Fit       0.040461
 1806 Fit       0.039755
 1807 Fit       0.040405
 1808 Fit       0.040405
 1809 Fit       0.039755
 1810 Fit       0.040821
 1811 Fit       0.040821
 1812 Fit       0.037648
 1813 Fit       0.038859
 1814 Fit       0.040415
 1815 Fit       0.041073
 1816 Fit       0.040415
 1817 Fit       0.038859
 1818 Fit       0.037648
 1819 Fit       0.034180
 1820 Fit       0.036042
 1821 Fit       0.038383
 1822 Fit       0.040348
 1823 Fit       0.041445
 1824 Fit       0.041445
 1825 Fit       0.040348
 1826 Fit       0.038383
 1827 Fit       0.036042
 1828 Fit       0.034180
 1829 Fit       0.029447
 1830 Fit       0.032409
 1831 Fit       0.035694
 1832 Fit       0.038606
 1833 Fit       0.040746
 1834 Fit       0.041877
 1835 Fit       0.041877
 1836 Fit       0.040746
 1837 Fit       0.038606
 1838 Fit       0.035694
 1839 Fit       0.032409
 1840 Fit       0.029447
 1841 Fit       0.027881
 1842 Fit       0.032118
 1843 Fit       0.035896
 1844 Fit       0.038955
 1845 Fit       0.041116
 1846 Fit       0.042238
 1847 Fit       0.042238
 1848 Fit       0.041116
 1849 Fit       0.038955
 1850 Fit       0.035896
 1851 Fit       0.032118
 1852 Fit       0.027881
 1853 Fit       0.023118
 1854 Fit       0.028570
 1855 Fit       0.033327
 1856 Fit       0.037264
 1857 Fit       0.040263
 1858 Fit       0.042167
 1859 Fit       0.042823
 1860 Fit       0.042167
 1861 Fit       0.040263
 1862 Fit       0.037264
 1863 Fit       0.033327
 1864 Fit       0.028570
 1865 Fit       0.023118
 1866 Fit       0.025196
 1867 Fit       0.030931
 1868 Fit       0.035787
 1869 Fit       0.039704
 1870 Fit       0.042455
 1871 Fit       0.043720
 1872 Fit       0.043292
 1873 Fit       0.041245
 1874 Fit       0.037873
 1875 Fit       0.033469
 1876 Fit       0.028175
 1877 Fit       0.029814
 1878 Fit       0.035864
 1879 Fit       0.035864
 1880 Fit       0.029814
 1881 Fit       0.040461
 1882 Fit       0.039755
 1883 Fit       0.040821
 1884 Fit       0.040821
 1885 Fit       0.039755
 1886 Fit       0.040405
 1887 Fit       0.040405
 1888 Fit       0.037648
 1889 Fit       0.037648
 1890 Fit       0.038859
 1891 Fit       0.040415
 1892 Fit       0.041073
 1893 Fit       0.040415
 1894 Fit       0.038859
 1895 Fit       0.034180
 1896 Fit       0.034180
 1897 Fit       0.036042
 1898 Fit       0.038383
 1899 Fit       0.040348
 1900 Fit       0.041445
 1901 Fit       0.041445
 1902 Fit       0.040348
 1903 Fit       0.038383
 1904 Fit       0.036042
 1905 Fit       0.029447
 1906 Fit       0.029447
 1907 Fit       0.032409
 1908 Fit       0.035694
 1909 Fit       0.038606
 1910 Fit       0.040746
 1911 Fit       0.041877
 1912 Fit       0.041877
 1913 Fit       0.040746
 1914 Fit       0.038606
 1915 Fit       0.035694
 1916 Fit       0.032409
 1917 Fit       0.027881
 1918 Fit       0.032118
 1919 Fit       0.035896
 1920 Fit       0.038955
 1921 Fit       0.041116
 1922 Fit       0.042238
 1923 Fit       0.042238
 1924 Fit       0.041116
 1925 Fit       0.038955
 1926 Fit       0.035896
 1927 Fit       0.032118
 1928 Fit       0.027881
 1929 Fit       0.023118
 1930 Fit       0.028570
 1931 Fit       0.033327
 1932 Fit       0.037264
 1933 Fit       0.040263
 1934 Fit       0.042167
 1935 Fit       0.042823
 1936 Fit       0.042167
 1937 Fit       0.040263
 1938 Fit       0.037264
 1939 Fit       0.033327
 1940 Fit       0.028570
 1941 Fit       0.023118
 1942 Fit       0.028175
 1943 Fit       0.033469
 1944 Fit       0.037873
 1945 Fit       0.041245
 1946 Fit       0.043292
 1947 Fit       0.043720
 1948 Fit       0.042455
 1949 Fit       0.039704
 1950 Fit       0.035787
 1951 Fit       0.030931
 1952 Fit       0.025196
 1953 Fit       0.029814
 1954 Fit       0.035864
 1955 Fit       0.035864
 1956 Fit       0.029814
 1957 Fit      -0.011401
 1958 Fit      -0.013655
 1959 Fit      -0.014036
 1960 Fit      -0.014036
 1961 Fit      -0.013655
 1962 Fit      -0.011401
 1963 Fit      -0.012606
 1964 Fit      -0.016573
 1965 Fit      -0.019109
 1966 Fit      -0.020317
 1967 Fit      -0.020326
 1968 Fit      -0.019379
 1969 Fit      -0.017921
 1970 Fit      -0.017921
 1971 Fit      -0.019379
 1972 Fit      -0.020326
 1973 Fit      -0.020317
 1974 Fit      -0.019109
 1975 Fit      -0.016573
 1976 Fit      -0.012606
 1977 Fit      -0.018168
 1978 Fit      -0.021520
 1979 Fit      -0.023814
 1980 Fit      -0.025116
 1981 Fit      -0.025558
 1982 Fit      -0.025344
 1983 Fit      -0.024761
 1984 Fit      -0.024147
 1985 Fit      -0.023815
 1986 Fit      -0.023931
 1987 Fit      -0.024436
 1988 Fit      -0.025078
 1989 Fit      -0.025517
 1990 Fit      -0.025434
 1991 Fit      -0.024583
 1992 Fit      -0.022797
 1993 Fit      -0.019977
 1994 Fit      -0.016101
 1995 Fit      -0.023664
 1996 Fit      -0.026222
 1997 Fit      -0.028034
 1998 Fit      -0.029103
 1999 Fit      -0.029529
 2000 Fit      -0.029483
 2001 Fit      -0.029179
 2002 Fit      -0.028841
 2003 Fit      -0.028658
 2004 Fit      -0.028721
 2005 Fit      -0.029001
 2006 Fit      -0.029349
 2007 Fit      -0.029553
 2008 Fit      -0.029387
 2009 Fit      -0.028657
 2010 Fit      -0.027224
 2011 Fit      -0.025031
 2012 Fit      -0.022153
 2013 Fit      -0.020548
 2014 Fit      -0.028905
 2015 Fit      -0.030636
 2016 Fit      -0.031878
 2017 Fit      -0.032576
 2018 Fit      -0.032800
 2019 Fit      -0.032697
 2020 Fit      -0.032441
 2021 Fit      -0.032204
 2022 Fit      -0.032109
 2023 Fit      -0.032204
 2024 Fit      -0.032441
 2025 Fit      -0.032697
 2026 Fit      -0.032800
 2027 Fit      -0.032576
 2028 Fit      -0.031878
 2029 Fit      -0.030636
 2030 Fit      -0.028905
 2031 Fit      -0.026984
 2032 Fit      -0.026984
 2033 Fit      -0.033771
 2034 Fit      -0.034721
 2035 Fit      -0.035392
 2036 Fit      -0.035684
 2037 Fit      -0.035652
 2038 Fit      -0.035426
 2039 Fit      -0.035160
 2040 Fit      -0.034988
 2041 Fit      -0.034988
 2042 Fit      -0.035160
 2043 Fit      -0.035426
 2044 Fit      -0.035652
 2045 Fit      -0.035684
 2046 Fit      -0.035392
 2047 Fit      -0.034721
 2048 Fit      -0.033771
 2049 Fit      -0.032922
 2050 Fit      -0.033089
 2051 Fit      -0.033089
 2052 Fit      -0.032922
 2053 Fit      -0.038167
 2054 Fit      -0.038423
 2055 Fit      -0.038572
 2056 Fit      -0.038491
 2057 Fit      -0.038230
 2058 Fit      -0.037916
 2059 Fit      -0.037686
 2060 Fit      -0.037635
 2061 Fit      -0.037783
 2062 Fit      -0.038071
 2063 Fit      -0.038376
 2064 Fit      -0.038560
 2065 Fit      -0.038524
 2066 Fit      -0.038290
 2067 Fit      -0.038117
 2068 Fit      -0.038672
 2069 Fit      -0.041278
 2070 Fit      -0.039603
 2071 Fit      -0.038239
 2072 Fit      -0.041991
 2073 Fit      -0.041649
 2074 Fit      -0.041344
 2075 Fit      -0.040950
 2076 Fit      -0.040554
 2077 Fit      -0.040304
 2078 Fit      -0.040304
 2079 Fit      -0.040554
 2080 Fit      -0.040950
 2081 Fit      -0.041344
 2082 Fit      -0.041649
 2083 Fit      -0.041991
 2084 Fit      -0.042888
 2085 Fit      -0.045405
 2086 Fit      -0.045405
 2087 Fit      -0.042888
 2088 Fit      -0.045133
 2089 Fit      -0.044299
 2090 Fit      -0.043667
 2091 Fit      -0.043157
 2092 Fit      -0.042895
 2093 Fit      -0.042986
 2094 Fit      -0.043391
 2095 Fit      -0.043971
 2096 Fit      -0.044670
 2097 Fit      -0.045768
 2098 Fit      -0.048004
 2099 Fit      -0.052031
 2100 Fit      -0.054456
 2101 Fit      -0.049799
 2102 Fit      -0.046686
 2103 Fit      -0.047478
 2104 Fit      -0.046334
 2105 Fit      -0.045620
 2106 Fit      -0.045356
 2107 Fit      -0.045620
 2108 Fit      -0.046334
 2109 Fit      -0.047478
 2110 Fit      -0.049373
 2111 Fit      -0.051997
 2112 Fit      -0.053458
 2113 Fit      -0.051997
 2114 Fit      -0.049373
 2115 Fit      -0.048930
 2116 Fit      -0.047716
 2117 Fit      -0.047716
 2118 Fit      -0.048930
 2119 Fit      -0.050768
 2120 Fit      -0.050768
 2121 Fit      -0.049422
 2122 Fit      -0.011401
 2123 Fit      -0.013655
 2124 Fit      -0.014036
 2125 Fit      -0.014036
 2126 Fit      -0.013655
 2127 Fit      -0.011401
 2128 Fit      -0.012606
 2129 Fit      -0.012606
 2130 Fit      -0.016573
 2131 Fit      -0.019109
 2132 Fit      -0.020317
 2133 Fit      -0.020326
 2134 Fit      -0.019379
 2135 Fit      -0.017921
 2136 Fit      -0.017921
 2137 Fit      -0.019379
 2138 Fit      -0.020326
 2139 Fit      -0.020317
 2140 Fit      -0.019109
 2141 Fit      -0.016573
 2142 Fit      -0.018168
 2143 Fit      -0.016101
 2144 Fit      -0.019977
 2145 Fit      -0.022797
 2146 Fit      -0.024583
 2147 Fit      -0.025434
 2148 Fit      -0.025517
 2149 Fit      -0.025078
 2150 Fit      -0.024436
 2151 Fit      -0.023931
 2152 Fit      -0.023815
 2153 Fit      -0.024147
 2154 Fit      -0.024761
 2155 Fit      -0.025344
 2156 Fit      -0.025558
 2157 Fit      -0.025116
 2158 Fit      -0.023814
 2159 Fit      -0.021520
 2160 Fit      -0.023664
 2161 Fit      -0.020548
 2162 Fit      -0.022153
 2163 Fit      -0.025031
 2164 Fit      -0.027224
 2165 Fit      -0.028657
 2166 Fit      -0.029387
 2167 Fit      -0.029553
 2168 Fit      -0.029349
 2169 Fit      -0.029001
 2170 Fit      -0.028721
 2171 Fit      -0.028658
 2172 Fit      -0.028841
 2173 Fit      -0.029179
 2174 Fit      -0.029483
 2175 Fit      -0.029529
 2176 Fit      -0.029103
 2177 Fit      -0.028034
 2178 Fit      -0.026222
 2179 Fit      -0.028905
 2180 Fit      -0.026984
 2181 Fit      -0.026984
 2182 Fit      -0.028905
 2183 Fit      -0.030636
 2184 Fit      -0.031878
 2185 Fit      -0.032576
 2186 Fit      -0.032800
 2187 Fit      -0.032697
 2188 Fit      -0.032441
 2189 Fit      -0.032204
 2190 Fit      -0.032109
 2191 Fit      -0.032204
 2192 Fit      -0.032441
 2193 Fit      -0.032697
 2194 Fit      -0.032800
 2195 Fit      -0.032576
 2196 Fit      -0.031878
 2197 Fit      -0.030636
 2198 Fit      -0.033771
 2199 Fit      -0.032922
 2200 Fit      -0.033089
 2201 Fit      -0.033089
 2202 Fit      -0.032922
 2203 Fit      -0.033771
 2204 Fit      -0.034721
 2205 Fit      -0.035392
 2206 Fit      -0.035684
 2207 Fit      -0.035652
 2208 Fit      -0.035426
 2209 Fit      -0.035160
 2210 Fit      -0.034988
 2211 Fit      -0.034988
 2212 Fit      -0.035160
 2213 Fit      -0.035426
 2214 Fit      -0.035652
 2215 Fit      -0.035684
 2216 Fit      -0.035392
 2217 Fit      -0.034721
 2218 Fit      -0.038167
 2219 Fit      -0.038239
 2220 Fit      -0.039603
 2221 Fit      -0.041278
 2222 Fit      -0.038672
 2223 Fit      -0.038117
 2224 Fit      -0.038290
 2225 Fit      -0.038524
 2226 Fit      -0.038560
 2227 Fit      -0.038376
 2228 Fit      -0.038071
 2229 Fit      -0.037783
 2230 Fit      -0.037635
 2231 Fit      -0.037686
 2232 Fit      -0.037916
 2233 Fit      -0.038230
 2234 Fit      -0.038491
 2235 Fit      -0.038572
 2236 Fit      -0.038423
 2237 Fit      -0.041991
 2238 Fit      -0.042888
 2239 Fit      -0.045405
 2240 Fit      -0.045405
 2241 Fit      -0.042888
 2242 Fit      -0.041991
 2243 Fit      -0.041649
 2244 Fit      -0.041344
 2245 Fit      -0.040950
 2246 Fit      -0.040554
 2247 Fit      -0.040304
 2248 Fit      -0.040304
 2249 Fit      -0.040554
 2250 Fit      -0.040950
 2251 Fit      -0.041344
 2252 Fit      -0.041649
 2253 Fit      -0.045133
 2254 Fit      -0.046686
 2255 Fit      -0.049799
 2256 Fit      -0.054456
 2257 Fit      -0.052031
 2258 Fit      -0.048004
 2259 Fit      -0.045768
 2260 Fit      -0.044670
 2261 Fit      -0.043971
 2262 Fit      -0.043391
 2263 Fit      -0.042986
 2264 Fit      -0.042895
 2265 Fit      -0.043157
 2266 Fit      -0.043667
 2267 Fit      -0.044299
 2268 Fit      -0.047478
 2269 Fit      -0.049373
 2270 Fit      -0.051997
 2271 Fit      -0.053458
 2272 Fit      -0.051997
 2273 Fit      -0.049373
 2274 Fit      -0.047478
 2275 Fit      -0.046334
 2276 Fit      -0.045620
 2277 Fit      -0.045356
 2278 Fit      -0.045620
 2279 Fit      -0.046334
 2280 Fit      -0.048930
 2281 Fit      -0.050768
 2282 Fit      -0.050768
 2283 Fit      -0.048930
 2284 Fit      -0.047716
 2285 Fit      -0.047716
 2286 Fit      -0.049422
 2287 Fit      -0.005587
 2288 Fit      -0.004138
 2289 Fit      -0.002218
 2290 Fit       0.000176
 2291 Fit       0.003006
 2292 Fit       0.006179
 2293 Fit       0.009527
 2294 Fit       0.009527
 2295 Fit       0.006179
 2296 Fit       0.003006
 2297 Fit       0.000176
 2298 Fit      -0.002218
 2299 Fit      -0.004138
 2300 Fit      -0.005587
 2301 Fit      -0.006617
 2302 Fit      -0.007361
 2303 Fit      -0.007361
 2304 Fit      -0.006617
 2305 Fit      -0.005574
 2306 Fit      -0.004286
 2307 Fit      -0.002645
 2308 Fit      -0.000609
 2309 Fit       0.001833
 2310 Fit       0.004645
 2311 Fit       0.006161
 2312 Fit       0.003197
 2313 Fit       0.000562
 2314 Fit      -0.001678
 2315 Fit      -0.003513
 2316 Fit      -0.004970
 2317 Fit      -0.006106
 2318 Fit      -0.007014
 2319 Fit      -0.006581
 2320 Fit      -0.005762
 2321 Fit      -0.004688
 2322 Fit      -0.003283
 2323 Fit      -0.001469
 2324 Fit       0.000808
 2325 Fit       0.000808
 2326 Fit      -0.001469
 2327 Fit      -0.003283
 2328 Fit      -0.004688
 2329 Fit      -0.005762
 2330 Fit      -0.006604
 2331 Fit      -0.006604
 2332 Fit      -0.006154
 2333 Fit      -0.005536
 2334 Fit      -0.004491
 2335 Fit      -0.002914
 2336 Fit      -0.002914
 2337 Fit      -0.004491
 2338 Fit      -0.005536
 2339 Fit      -0.006154
 2340 Fit      -0.006871
 2341 Fit      -0.007172
 2342 Fit      -0.006780
 2343 Fit      -0.005616
 2344 Fit      -0.005616
 2345 Fit      -0.006780
 2346 Fit      -0.007172
 2347 Fit      -0.006871
 2348 Fit      -0.005587
 2349 Fit      -0.006617
 2350 Fit      -0.007361
 2351 Fit      -0.007361
 2352 Fit      -0.006617
 2353 Fit      -0.005587
 2354 Fit      -0.004138
 2355 Fit      -0.002218
 2356 Fit       0.000176
 2357 Fit       0.003006
 2358 Fit       0.006179
 2359 Fit       0.009527
 2360 Fit       0.009527
 2361 Fit       0.006179
 2362 Fit       0.003006
 2363 Fit       0.000176
 2364 Fit      -0.002218
 2365 Fit      -0.004138
 2366 Fit      -0.005574
 2367 Fit      -0.006581
 2368 Fit      -0.007014
 2369 Fit      -0.006106
 2370 Fit      -0.004970
 2371 Fit      -0.003513
 2372 Fit      -0.001678
 2373 Fit       0.000562
 2374 Fit       0.003197
 2375 Fit       0.006161
 2376 Fit       0.004645
 2377 Fit       0.001833
 2378 Fit      -0.000609
 2379 Fit      -0.002645
 2380 Fit      -0.004286
 2381 Fit      -0.005762
 2382 Fit      -0.006604
 2383 Fit      -0.006604
 2384 Fit      -0.005762
 2385 Fit      -0.004688
 2386 Fit      -0.003283
 2387 Fit      -0.001469
 2388 Fit       0.000808
 2389 Fit       0.000808
 2390 Fit      -0.001469
 2391 Fit      -0.003283
 2392 Fit      -0.004688
 2393 Fit      -0.006154
 2394 Fit      -0.006154
 2395 Fit      -0.005536
 2396 Fit      -0.004491
 2397 Fit      -0.002914
 2398 Fit      -0.002914
 2399 Fit      -0.004491
 2400 Fit      -0.005536
 2401 Fit      -0.006871
 2402 Fit      -0.006871
 2403 Fit      -0.007172
 2404 Fit      -0.006780
 2405 Fit      -0.005616
 2406 Fit      -0.005616
 2407 Fit      -0.006780
 2408 Fit      -0.007172
 2409 Fit       0.011342
 2410 Fit       0.014810
 2411 Fit       0.016558
 2412 Fit       0.013081
 2413 Fit       0.004555
 2414 Fit       0.007014
 2415 Fit       0.009735
 2416 Fit       0.012779
 2417 Fit       0.012779
 2418 Fit       0.009735
 2419 Fit       0.007014
 2420 Fit       0.004555
 2421 Fit       0.001641
 2422 Fit       0.003528
 2423 Fit       0.005837
 2424 Fit       0.008573
 2425 Fit       0.008573
 2426 Fit       0.005837
 2427 Fit       0.003528
 2428 Fit       0.001641
 2429 Fit      -0.000961
 2430 Fit       0.000630
 2431 Fit       0.002684
 2432 Fit       0.005188
 2433 Fit       0.008120
 2434 Fit       0.008120
 2435 Fit       0.005188
 2436 Fit       0.002684
 2437 Fit       0.000630
 2438 Fit      -0.000961
 2439 Fit      -0.002091
 2440 Fit      -0.002091
 2441 Fit      -0.003148
 2442 Fit      -0.001678
 2443 Fit       0.000276
 2444 Fit       0.002697
 2445 Fit       0.005539
 2446 Fit       0.008725
 2447 Fit       0.010406
 2448 Fit       0.007096
 2449 Fit       0.004069
 2450 Fit       0.001430
 2451 Fit      -0.000761
 2452 Fit      -0.002474
 2453 Fit      -0.003706
 2454 Fit      -0.004521
 2455 Fit      -0.004158
 2456 Fit      -0.004861
 2457 Fit      -0.003367
 2458 Fit      -0.001332
 2459 Fit       0.001218
 2460 Fit       0.004217
 2461 Fit       0.007553
 2462 Fit       0.011039
 2463 Fit       0.011039
 2464 Fit       0.007553
 2465 Fit       0.004217
 2466 Fit       0.001218
 2467 Fit      -0.001332
 2468 Fit      -0.003367
 2469 Fit      -0.004861
 2470 Fit      -0.005850
 2471 Fit      -0.006485
 2472 Fit      -0.006485
 2473 Fit      -0.005850
 2474 Fit       0.013081
 2475 Fit       0.016558
 2476 Fit       0.014810
 2477 Fit       0.011342
 2478 Fit       0.004555
 2479 Fit       0.004555
 2480 Fit       0.007014
 2481 Fit       0.009735
 2482 Fit       0.012779
 2483 Fit       0.012779
 2484 Fit       0.009735
 2485 Fit       0.007014
 2486 Fit       0.001641
 2487 Fit       0.001641
 2488 Fit       0.003528
 2489 Fit       0.005837
 2490 Fit       0.008573
 2491 Fit       0.008573
 2492 Fit       0.005837
 2493 Fit       0.003528
 2494 Fit      -0.000961
 2495 Fit      -0.002091
 2496 Fit      -0.002091
 2497 Fit      -0.000961
 2498 Fit       0.000630
 2499 Fit       0.002684
 2500 Fit       0.005188
 2501 Fit       0.008120
 2502 Fit       0.008120
 2503 Fit       0.005188
 2504 Fit       0.002684
 2505 Fit       0.000630
 2506 Fit      -0.003148
 2507 Fit      -0.004158
 2508 Fit      -0.004521
 2509 Fit      -0.003706
 2510 Fit      -0.002474
 2511 Fit      -0.000761
 2512 Fit       0.001430
 2513 Fit       0.004069
 2514 Fit       0.007096
 2515 Fit       0.010406
 2516 Fit       0.008725
 2517 Fit       0.005539
 2518 Fit       0.002697
 2519 Fit       0.000276
 2520 Fit      -0.001678
 2521 Fit      -0.004861
 2522 Fit      -0.005850
 2523 Fit      -0.006485
 2524 Fit      -0.006485
 2525 Fit      -0.005850
 2526 Fit      -0.004861
 2527 Fit      -0.003367
 2528 Fit      -0.001332
 2529 Fit       0.001218
 2530 Fit       0.004217
 2531 Fit       0.007553
 2532 Fit       0.011039
 2533 Fit       0.011039
 2534 Fit       0.007553
 2535 Fit       0.004217
 2536 Fit       0.001218
 2537 Fit      -0.001332
 2538 Fit      -0.003367
 2539 Fit       0.000893
 2540 Fit       0.001206
 2541 Fit       0.002178
 2542 Fit       0.002178
 2543 Fit       0.001206
 2544 Fit       0.000893
 2545 Fit       0.001206
 2546 Fit       0.002178
 2547 Fit       0.002178
 2548 Fit       0.001206
 2549 Fit      -0.000838
 2550 Fit      -0.000744
 2551 Fit      -0.000615
 2552 Fit      -0.000815
 2553 Fit      -0.000815
 2554 Fit      -0.000615
 2555 Fit      -0.000744
 2556 Fit      -0.003029
 2557 Fit      -0.003128
 2558 Fit      -0.003128
 2559 Fit      -0.003029
 2560 Fit      -0.003128
 2561 Fit      -0.003128
 2562 Fit      -0.005274
 2563 Fit      -0.005274
 2564 Fit      -0.007217
 2565 Fit      -0.007217
 2566 Fit      -0.007788
 2567 Fit      -0.007788
 2568 Fit      -0.007495
 2569 Fit      -0.007495
 2570 Fit      -0.007167
 2571 Fit      -0.007120
 2572 Fit      -0.007120
 2573 Fit      -0.007167
 2574 Fit      -0.007120
 2575 Fit      -0.007120
 2576 Fit      -0.006750
 2577 Fit      -0.006709
 2578 Fit      -0.006642
 2579 Fit      -0.006741
 2580 Fit      -0.006741
 2581 Fit      -0.006642
 2582 Fit      -0.006709
 2583 Fit      -0.006277
 2584 Fit      -0.006331
 2585 Fit      -0.006442
 2586 Fit      -0.006442
 2587 Fit      -0.006331
 2588 Fit      -0.006277
 2589 Fit      -0.006331
 2590 Fit      -0.006442
 2591 Fit      -0.006442
 2592 Fit      -0.006331
 2593 Fit       0.016809
 2594 Fit       0.017885
 2595 Fit       0.018100
 2596 Fit       0.017454
 2597 Fit       0.015949
 2598 Fit       0.011056
 2599 Fit       0.012854
 2600 Fit       0.014069
 2601 Fit       0.014681
 2602 Fit       0.014681
 2603 Fit       0.014069
 2604 Fit       0.012854
 2605 Fit       0.011056
 2606 Fit       0.006107
 2607 Fit       0.008108
 2608 Fit       0.009735
 2609 Fit       0.010933
 2610 Fit       0.011665
 2611 Fit       0.011911
 2612 Fit       0.011665
 2613 Fit       0.010933
 2614 Fit       0.009735
 2615 Fit       0.008108
 2616 Fit       0.006107
 2617 Fit       0.001645
 2618 Fit       0.003575
 2619 Fit       0.005338
 2620 Fit       0.006828
 2621 Fit       0.007971
 2622 Fit       0.008719
 2623 Fit       0.009044
 2624 Fit       0.008935
 2625 Fit       0.008396
 2626 Fit       0.007446
 2627 Fit       0.006123
 2628 Fit       0.004485
 2629 Fit       0.002623
 2630 Fit      -0.001031
 2631 Fit       0.000772
 2632 Fit       0.002449
 2633 Fit       0.003865
 2634 Fit       0.004929
 2635 Fit       0.005588
 2636 Fit       0.005811
 2637 Fit       0.005588
 2638 Fit       0.004929
 2639 Fit       0.003865
 2640 Fit       0.002449
 2641 Fit       0.000772
 2642 Fit      -0.001031
 2643 Fit      -0.006624
 2644 Fit      -0.004800
 2645 Fit      -0.002892
 2646 Fit      -0.001155
 2647 Fit       0.000251
 2648 Fit       0.001233
 2649 Fit       0.001736
 2650 Fit       0.001736
 2651 Fit       0.001233
 2652 Fit       0.000251
 2653 Fit      -0.001155
 2654 Fit      -0.002892
 2655 Fit      -0.004800
 2656 Fit      -0.006624
 2657 Fit      -0.010143
 2658 Fit      -0.007798
 2659 Fit      -0.005840
 2660 Fit      -0.004417
 2661 Fit      -0.003605
 2662 Fit      -0.003441
 2663 Fit      -0.003931
 2664 Fit      -0.005056
 2665 Fit      -0.006760
 2666 Fit      -0.008935
 2667 Fit      -0.011382
 2668 Fit      -0.012026
 2669 Fit      -0.010763
 2670 Fit      -0.010509
 2671 Fit      -0.011269
 2672 Fit      -0.013031
 2673 Fit       0.015949
 2674 Fit       0.017454
 2675 Fit       0.018100
 2676 Fit       0.017885
 2677 Fit       0.016809
 2678 Fit       0.011056
 2679 Fit       0.012854
 2680 Fit       0.014069
 2681 Fit       0.014681
 2682 Fit       0.014681
 2683 Fit       0.014069
 2684 Fit       0.012854
 2685 Fit       0.011056
 2686 Fit       0.006107
 2687 Fit       0.008108
 2688 Fit       0.009735
 2689 Fit       0.010933
 2690 Fit       0.011665
 2691 Fit       0.011911
 2692 Fit       0.011665
 2693 Fit       0.010933
 2694 Fit       0.009735
 2695 Fit       0.008108
 2696 Fit       0.006107
 2697 Fit       0.002623
 2698 Fit       0.004485
 2699 Fit       0.006123
 2700 Fit       0.007446
 2701 Fit       0.008396
 2702 Fit       0.008935
 2703 Fit       0.009044
 2704 Fit       0.008719
 2705 Fit       0.007971
 2706 Fit       0.006828
 2707 Fit       0.005338
 2708 Fit       0.003575
 2709 Fit       0.001645
 2710 Fit      -0.001031
 2711 Fit       0.000772
 2712 Fit       0.002449
 2713 Fit       0.003865
 2714 Fit       0.004929
 2715 Fit       0.005588
 2716 Fit       0.005811
 2717 Fit       0.005588
 2718 Fit       0.004929
 2719 Fit       0.003865
 2720 Fit       0.002449
 2721 Fit       0.000772
 2722 Fit      -0.001031
 2723 Fit      -0.006624
 2724 Fit      -0.004800
 2725 Fit      -0.002892
 2726 Fit      -0.001155
 2727 Fit       0.000251
 2728 Fit       0.001233
 2729 Fit       0.001736
 2730 Fit       0.001736
 2731 Fit       0.001233
 2732 Fit       0.000251
 2733 Fit      -0.001155
 2734 Fit      -0.002892
 2735 Fit      -0.004800
 2736 Fit      -0.006624
 2737 Fit      -0.011382
 2738 Fit      -0.008935
 2739 Fit      -0.006760
 2740 Fit      -0.005056
 2741 Fit      -0.003931
 2742 Fit      -0.003441
 2743 Fit      -0.003605
 2744 Fit      -0.004417
 2745 Fit      -0.005840
 2746 Fit      -0.007798
 2747 Fit      -0.010143
 2748 Fit      -0.013031
 2749 Fit      -0.011269
 2750 Fit      -0.010509
 2751 Fit      -0.010763
 2752 Fit      -0.012026
 2753 Fit       0.033037
 2754 Fit       0.032338
 2755 Fit       0.032088
 2756 Fit       0.032088
 2757 Fit       0.032338
 2758 Fit       0.033037
 2759 Fit       0.027004
 2760 Fit       0.027003
 2761 Fit       0.027203
 2762 Fit       0.027448
 2763 Fit       0.027622
 2764 Fit       0.027660
 2765 Fit       0.027549
 2766 Fit       0.027329
 2767 Fit       0.027088
 2768 Fit       0.026968
 2769 Fit       0.027128
 2770 Fit       0.020726
 2771 Fit       0.021774
 2772 Fit       0.022733
 2773 Fit       0.023540
 2774 Fit       0.024137
 2775 Fit       0.024482
 2776 Fit       0.024553
 2777 Fit       0.024343
 2778 Fit       0.023868
 2779 Fit       0.023160
 2780 Fit       0.022269
 2781 Fit       0.021258
 2782 Fit       0.020182
 2783 Fit       0.015568
 2784 Fit       0.017338
 2785 Fit       0.018887
 2786 Fit       0.020172
 2787 Fit       0.021163
 2788 Fit       0.021836
 2789 Fit       0.022176
 2790 Fit       0.022176
 2791 Fit       0.021836
 2792 Fit       0.021163
 2793 Fit       0.020172
 2794 Fit       0.018887
 2795 Fit       0.017338
 2796 Fit       0.015568
 2797 Fit       0.013612
 2798 Fit       0.015646
 2799 Fit       0.017332
 2800 Fit       0.018655
 2801 Fit       0.019606
 2802 Fit       0.020179
 2803 Fit       0.020370
 2804 Fit       0.020179
 2805 Fit       0.019606
 2806 Fit       0.018655
 2807 Fit       0.017332
 2808 Fit       0.015646
 2809 Fit       0.013612
 2810 Fit       0.010579
 2811 Fit       0.013046
 2812 Fit       0.015077
 2813 Fit       0.016674
 2814 Fit       0.017842
 2815 Fit       0.018584
 2816 Fit       0.018902
 2817 Fit       0.018796
 2818 Fit       0.018266
 2819 Fit       0.017311
 2820 Fit       0.015929
 2821 Fit       0.014116
 2822 Fit       0.011867
 2823 Fit       0.011457
 2824 Fit       0.013799
 2825 Fit       0.015597
 2826 Fit       0.016872
 2827 Fit       0.017633
 2828 Fit       0.017887
 2829 Fit       0.017633
 2830 Fit       0.016872
 2831 Fit       0.015597
 2832 Fit       0.013799
 2833 Fit       0.011457
 2834 Fit       0.013588
 2835 Fit       0.015502
 2836 Fit       0.016768
 2837 Fit       0.017398
 2838 Fit       0.017398
 2839 Fit       0.016768
 2840 Fit       0.015502
 2841 Fit       0.013588
 2842 Fit       0.016867
 2843 Fit       0.017917
 2844 Fit       0.018127
 2845 Fit       0.017497
 2846 Fit       0.016025
 2847 Fit       0.033037
 2848 Fit       0.032338
 2849 Fit       0.032088
 2850 Fit       0.032088
 2851 Fit       0.032338
 2852 Fit       0.033037
 2853 Fit       0.027128
 2854 Fit       0.026968
 2855 Fit       0.027088
 2856 Fit       0.027329
 2857 Fit       0.027549
 2858 Fit       0.027660
 2859 Fit       0.027622
 2860 Fit       0.027448
 2861 Fit       0.027203
 2862 Fit       0.027003
 2863 Fit       0.027004
 2864 Fit       0.020182
 2865 Fit       0.021258
 2866 Fit       0.022269
 2867 Fit       0.023160
 2868 Fit       0.023868
 2869 Fit       0.024343
 2870 Fit       0.024553
 2871 Fit       0.024482
 2872 Fit       0.024137
 2873 Fit       0.023540
 2874 Fit       0.022733
 2875 Fit       0.021774
 2876 Fit       0.020726
 2877 Fit       0.015568
 2878 Fit       0.017338
 2879 Fit       0.018887
 2880 Fit       0.020172
 2881 Fit       0.021163
 2882 Fit       0.021836
 2883 Fit       0.022176
 2884 Fit       0.022176
 2885 Fit       0.021836
 2886 Fit       0.021163
 2887 Fit       0.020172
 2888 Fit       0.018887
 2889 Fit       0.017338
 2890 Fit       0.015568
 2891 Fit       0.013612
 2892 Fit       0.015646
 2893 Fit       0.017332
 2894 Fit       0.018655
 2895 Fit       0.019606
 2896 Fit       0.020179
 2897 Fit       0.020370
 2898 Fit       0.020179
 2899 Fit       0.019606
 2900 Fit       0.018655
 2901 Fit       0.017332
 2902 Fit       0.015646
 2903 Fit       0.013612
 2904 Fit       0.011867
 2905 Fit       0.014116
 2906 Fit       0.015929
 2907 Fit       0.017311
 2908 Fit       0.018266
 2909 Fit       0.018796
 2910 Fit       0.018902
 2911 Fit       0.018584
 2912 Fit       0.017842
 2913 Fit       0.016674
 2914 Fit       0.015077
 2915 Fit       0.013046
 2916 Fit       0.010579
 2917 Fit       0.011457
 2918 Fit       0.013799
 2919 Fit       0.015597
 2920 Fit       0.016872
 2921 Fit       0.017633
 2922 Fit       0.017887
 2923 Fit       0.017633
 2924 Fit       0.016872
 2925 Fit       0.015597
 2926 Fit       0.013799
 2927 Fit       0.011457
 2928 Fit       0.013588
 2929 Fit       0.015502
 2930 Fit       0.016768
 2931 Fit       0.017398
 2932 Fit       0.017398
 2933 Fit       0.016768
 2934 Fit       0.015502
 2935 Fit       0.013588
 2936 Fit       0.016025
 2937 Fit       0.017497
 2938 Fit       0.018127
 2939 Fit       0.017917
 2940 Fit       0.016867
 2941 Fit      -0.006933
 2942 Fit      -0.007254
 2943 Fit      -0.008196
 2944 Fit      -0.009690
 2945 Fit      -0.009690
 2946 Fit      -0.008196
 2947 Fit      -0.007254
 2948 Fit      -0.006933
 2949 Fit      -0.007254
 2950 Fit      -0.008196
 2951 Fit      -0.009690
 2952 Fit      -0.009690
 2953 Fit      -0.008196
 2954 Fit      -0.007254
 2955 Fit      -0.009414
 2956 Fit      -0.009892
 2957 Fit      -0.011317
 2958 Fit      -0.012374
 2959 Fit      -0.010488
 2960 Fit      -0.009534
 2961 Fit      -0.009534
 2962 Fit      -0.010488
 2963 Fit      -0.012374
 2964 Fit      -0.011317
 2965 Fit      -0.009892
 2966 Fit      -0.012973
 2967 Fit      -0.013629
 2968 Fit      -0.015586
 2969 Fit      -0.015586
 2970 Fit      -0.013629
 2971 Fit      -0.012973
 2972 Fit      -0.013629
 2973 Fit      -0.015586
 2974 Fit      -0.015586
 2975 Fit      -0.013629
 2976 Fit      -0.017365
 2977 Fit      -0.018213
 2978 Fit      -0.018213
 2979 Fit      -0.017365
 2980 Fit      -0.018213
 2981 Fit      -0.018213
 2982 Fit      -0.022378
 2983 Fit      -0.023393
 2984 Fit      -0.023393
 2985 Fit      -0.022378
 2986 Fit      -0.023393
 2987 Fit      -0.023393
 2988 Fit      -0.027814
 2989 Fit      -0.028115
 2990 Fit      -0.028115
 2991 Fit      -0.033447
 2992 Fit      -0.033447
 2993 Fit       0.034723
 2994 Fit       0.034068
 2995 Fit       0.035062
 2996 Fit       0.035062
 2997 Fit       0.034068
 2998 Fit       0.035062
 2999 Fit       0.035062
 3000 Fit       0.032172
 3001 Fit       0.033416
 3002 Fit       0.033416
 3003 Fit       0.032172
 3004 Fit       0.033416
 3005 Fit       0.033416
 3006 Fit       0.029229
 3007 Fit       0.030406
 3008 Fit       0.030406
 3009 Fit       0.029229
 3010 Fit       0.030406
 3011 Fit       0.030406
 3012 Fit       0.025527
 3013 Fit       0.026566
 3014 Fit       0.029520
 3015 Fit       0.029520
 3016 Fit       0.026566
 3017 Fit       0.025527
 3018 Fit       0.026566
 3019 Fit       0.029520
 3020 Fit       0.029520
 3021 Fit       0.026566
 3022 Fit       0.021401
 3023 Fit       0.022414
 3024 Fit       0.025363
 3025 Fit       0.025363
 3026 Fit       0.022414
 3027 Fit       0.021401
 3028 Fit       0.022414
 3029 Fit       0.025363
 3030 Fit       0.025363
 3031 Fit       0.022414
 3032 Fit       0.017192
 3033 Fit       0.018062
 3034 Fit       0.020628
 3035 Fit       0.022508
 3036 Fit       0.019139
 3037 Fit       0.017410
 3038 Fit       0.017410
 3039 Fit       0.019139
 3040 Fit       0.022508
 3041 Fit       0.020628
 3042 Fit       0.018062
 3043 Fit       0.013205
 3044 Fit       0.014013
 3045 Fit       0.016408
 3046 Fit       0.020300
 3047 Fit       0.020300
 3048 Fit       0.016408
 3049 Fit       0.014013
 3050 Fit       0.013205
 3051 Fit       0.014013
 3052 Fit       0.016408
 3053 Fit       0.020300
 3054 Fit       0.020300
 3055 Fit       0.016408
 3056 Fit       0.014013
 3057 Fit       0.009674
 3058 Fit       0.010430
 3059 Fit       0.012680
 3060 Fit       0.016355
 3061 Fit       0.021313
 3062 Fit       0.021313
 3063 Fit       0.016355
 3064 Fit       0.012680
 3065 Fit       0.010430
 3066 Fit       0.009674
 3067 Fit       0.010430
 3068 Fit       0.012680
 3069 Fit       0.016355
 3070 Fit       0.021313
 3071 Fit       0.021313
 3072 Fit       0.016355
 3073 Fit       0.012680
 3074 Fit       0.010430
 3075 Fit       0.006737
 3076 Fit       0.007415
 3077 Fit       0.009433
 3078 Fit       0.012748
 3079 Fit       0.017263
 3080 Fit       0.017263
 3081 Fit       0.012748
 3082 Fit       0.009433
 3083 Fit       0.007415
 3084 Fit       0.006737
 3085 Fit       0.007415
 3086 Fit       0.009433
 3087 Fit       0.012748
 3088 Fit       0.017263
 3089 Fit       0.017263
 3090 Fit       0.012748
 3091 Fit       0.009433
 3092 Fit       0.007415
 3093 Fit       0.004414
 3094 Fit       0.005018
 3095 Fit       0.006823
 3096 Fit       0.009807
 3097 Fit       0.013923
 3098 Fit       0.019084
 3099 Fit       0.022013
 3100 Fit       0.016380
 3101 Fit       0.011728
 3102 Fit       0.008170
 3103 Fit       0.005771
 3104 Fit       0.004565
 3105 Fit       0.004565
 3106 Fit       0.005771
 3107 Fit       0.008170
 3108 Fit       0.011728
 3109 Fit       0.016380
 3110 Fit       0.022013
 3111 Fit       0.019084
 3112 Fit       0.013923
 3113 Fit       0.009807
 3114 Fit       0.006823
 3115 Fit       0.005018
 3116 Fit       0.002579
 3117 Fit       0.003123
 3118 Fit       0.004759
 3119 Fit       0.007503
 3120 Fit       0.011380
 3121 Fit       0.011380
 3122 Fit       0.007503
 3123 Fit       0.004759
 3124 Fit       0.003123
 3125 Fit       0.002579
 3126 Fit       0.003123
 3127 Fit       0.004759
 3128 Fit       0.007503
 3129 Fit       0.011380
 3130 Fit       0.011380
 3131 Fit       0.007503
 3132 Fit       0.004759
 3133 Fit       0.003123
 3134 Fit       0.035166
 3135 Fit       0.034710
 3136 Fit       0.034879
 3137 Fit       0.034879
 3138 Fit       0.034710
 3139 Fit       0.033350
 3140 Fit       0.033824
 3141 Fit       0.034705
 3142 Fit       0.035105
 3143 Fit       0.034705
 3144 Fit       0.033824
 3145 Fit       0.033350
 3146 Fit       0.031108
 3147 Fit       0.031953
 3148 Fit       0.033310
 3149 Fit       0.034546
 3150 Fit       0.035261
 3151 Fit       0.035261
 3152 Fit       0.034546
 3153 Fit       0.033310
 3154 Fit       0.031953
 3155 Fit       0.031108
 3156 Fit       0.029429
 3157 Fit       0.031286
 3158 Fit       0.033102
 3159 Fit       0.034549
 3160 Fit       0.035420
 3161 Fit       0.035600
 3162 Fit       0.035066
 3163 Fit       0.033887
 3164 Fit       0.032223
 3165 Fit       0.030336
 3166 Fit       0.028634
 3167 Fit       0.026347
 3168 Fit       0.028806
 3169 Fit       0.031190
 3170 Fit       0.033239
 3171 Fit       0.034776
 3172 Fit       0.035673
 3173 Fit       0.035857
 3174 Fit       0.035310
 3175 Fit       0.034080
 3176 Fit       0.032269
 3177 Fit       0.030026
 3178 Fit       0.027565
 3179 Fit       0.026021
 3180 Fit       0.029015
 3181 Fit       0.031648
 3182 Fit       0.033780
 3183 Fit       0.035289
 3184 Fit       0.036075
 3185 Fit       0.036075
 3186 Fit       0.035289
 3187 Fit       0.033780
 3188 Fit       0.031648
 3189 Fit       0.029015
 3190 Fit       0.026021
 3191 Fit       0.023125
 3192 Fit       0.026769
 3193 Fit       0.030005
 3194 Fit       0.032737
 3195 Fit       0.034845
 3196 Fit       0.036192
 3197 Fit       0.036657
 3198 Fit       0.036192
 3199 Fit       0.034845
 3200 Fit       0.032737
 3201 Fit       0.030005
 3202 Fit       0.026769
 3203 Fit       0.023125
 3204 Fit       0.024658
 3205 Fit       0.028537
 3206 Fit       0.031945
 3207 Fit       0.034751
 3208 Fit       0.036732
 3209 Fit       0.037642
 3210 Fit       0.037334
 3211 Fit       0.035861
 3212 Fit       0.033435
 3213 Fit       0.030306
 3214 Fit       0.026652
 3215 Fit       0.022559
 3216 Fit       0.028051
 3217 Fit       0.028051
 3218 Fit       0.035166
 3219 Fit       0.034710
 3220 Fit       0.034710
 3221 Fit       0.034879
 3222 Fit       0.034879
 3223 Fit       0.033350
 3224 Fit       0.033350
 3225 Fit       0.033824
 3226 Fit       0.034705
 3227 Fit       0.035105
 3228 Fit       0.034705
 3229 Fit       0.033824
 3230 Fit       0.031108
 3231 Fit       0.031108
 3232 Fit       0.031953
 3233 Fit       0.033310
 3234 Fit       0.034546
 3235 Fit       0.035261
 3236 Fit       0.035261
 3237 Fit       0.034546
 3238 Fit       0.033310
 3239 Fit       0.031953
 3240 Fit       0.028634
 3241 Fit       0.030336
 3242 Fit       0.032223
 3243 Fit       0.033887
 3244 Fit       0.035066
 3245 Fit       0.035600
 3246 Fit       0.035420
 3247 Fit       0.034549
 3248 Fit       0.033102
 3249 Fit       0.031286
 3250 Fit       0.029429
 3251 Fit       0.027565
 3252 Fit       0.030026
 3253 Fit       0.032269
 3254 Fit       0.034080
 3255 Fit       0.035310
 3256 Fit       0.035857
 3257 Fit       0.035673
 3258 Fit       0.034776
 3259 Fit       0.033239
 3260 Fit       0.031190
 3261 Fit       0.028806
 3262 Fit       0.026347
 3263 Fit       0.026021
 3264 Fit       0.029015
 3265 Fit       0.031648
 3266 Fit       0.033780
 3267 Fit       0.035289
 3268 Fit       0.036075
 3269 Fit       0.036075
 3270 Fit       0.035289
 3271 Fit       0.033780
 3272 Fit       0.031648
 3273 Fit       0.029015
 3274 Fit       0.026021
 3275 Fit       0.023125
 3276 Fit       0.026769
 3277 Fit       0.030005
 3278 Fit       0.032737
 3279 Fit       0.034845
 3280 Fit       0.036192
 3281 Fit       0.036657
 3282 Fit       0.036192
 3283 Fit       0.034845
 3284 Fit       0.032737
 3285 Fit       0.030005
 3286 Fit       0.026769
 3287 Fit       0.023125
 3288 Fit       0.022559
 3289 Fit       0.026652
 3290 Fit       0.030306
 3291 Fit       0.033435
 3292 Fit       0.035861
 3293 Fit       0.037334
 3294 Fit       0.037642
 3295 Fit       0.036732
 3296 Fit       0.034751
 3297 Fit       0.031945
 3298 Fit       0.028537
 3299 Fit       0.024658
 3300 Fit       0.028051
 3301 Fit       0.028051
 3302 Fit      -0.010669
 3303 Fit      -0.011834
 3304 Fit      -0.011962
 3305 Fit      -0.011962
 3306 Fit      -0.011834
 3307 Fit      -0.010669
 3308 Fit      -0.014347
 3309 Fit      -0.015776
 3310 Fit      -0.016446
 3311 Fit      -0.016388
 3312 Fit      -0.015694
 3313 Fit      -0.014556
 3314 Fit      -0.014556
 3315 Fit      -0.015694
 3316 Fit      -0.016388
 3317 Fit      -0.016446
 3318 Fit      -0.015776
 3319 Fit      -0.014347
 3320 Fit      -0.016187
 3321 Fit      -0.018071
 3322 Fit      -0.019425
 3323 Fit      -0.020217
 3324 Fit      -0.020476
 3325 Fit      -0.020286
 3326 Fit      -0.019784
 3327 Fit      -0.019158
 3328 Fit      -0.018618
 3329 Fit      -0.018348
 3330 Fit      -0.018441
 3331 Fit      -0.018864
 3332 Fit      -0.019473
 3333 Fit      -0.020063
 3334 Fit      -0.020430
 3335 Fit      -0.020409
 3336 Fit      -0.019891
 3337 Fit      -0.018818
 3338 Fit      -0.017190
 3339 Fit      -0.020273
 3340 Fit      -0.021726
 3341 Fit      -0.022833
 3342 Fit      -0.023530
 3343 Fit      -0.023830
 3344 Fit      -0.023799
 3345 Fit      -0.023544
 3346 Fit      -0.023197
 3347 Fit      -0.022892
 3348 Fit      -0.022739
 3349 Fit      -0.022791
 3350 Fit      -0.023031
 3351 Fit      -0.023374
 3352 Fit      -0.023692
 3353 Fit      -0.023850
 3354 Fit      -0.023726
 3355 Fit      -0.023234
 3356 Fit      -0.022329
 3357 Fit      -0.021034
 3358 Fit      -0.019471
 3359 Fit      -0.024252
 3360 Fit      -0.025226
 3361 Fit      -0.026008
 3362 Fit      -0.026504
 3363 Fit      -0.026709
 3364 Fit      -0.026674
 3365 Fit      -0.026488
 3366 Fit      -0.026252
 3367 Fit      -0.026064
 3368 Fit      -0.025992
 3369 Fit      -0.026064
 3370 Fit      -0.026252
 3371 Fit      -0.026488
 3372 Fit      -0.026674
 3373 Fit      -0.026709
 3374 Fit      -0.026504
 3375 Fit      -0.026008
 3376 Fit      -0.025226
 3377 Fit      -0.024252
 3378 Fit      -0.023344
 3379 Fit      -0.023344
 3380 Fit      -0.028011
 3381 Fit      -0.028507
 3382 Fit      -0.028943
 3383 Fit      -0.029195
 3384 Fit      -0.029246
 3385 Fit      -0.029137
 3386 Fit      -0.028947
 3387 Fit      -0.028758
 3388 Fit      -0.028643
 3389 Fit      -0.028643
 3390 Fit      -0.028758
 3391 Fit      -0.028947
 3392 Fit      -0.029137
 3393 Fit      -0.029246
 3394 Fit      -0.029195
 3395 Fit      -0.028943
 3396 Fit      -0.028507
 3397 Fit      -0.028011
 3398 Fit      -0.027756
 3399 Fit      -0.027756
 3400 Fit      -0.031468
 3401 Fit      -0.031517
 3402 Fit      -0.031617
 3403 Fit      -0.031622
 3404 Fit      -0.031508
 3405 Fit      -0.031314
 3406 Fit      -0.031113
 3407 Fit      -0.030973
 3408 Fit      -0.030942
 3409 Fit      -0.031031
 3410 Fit      -0.031210
 3411 Fit      -0.031417
 3412 Fit      -0.031578
 3413 Fit      -0.031635
 3414 Fit      -0.031573
 3415 Fit      -0.031471
 3416 Fit      -0.031559
 3417 Fit      -0.032315
 3418 Fit      -0.033193
 3419 Fit      -0.031810
 3420 Fit      -0.034554
 3421 Fit      -0.034199
 3422 Fit      -0.033994
 3423 Fit      -0.033778
 3424 Fit      -0.033527
 3425 Fit      -0.033288
 3426 Fit      -0.033126
 3427 Fit      -0.033091
 3428 Fit      -0.033193
 3429 Fit      -0.033402
 3430 Fit      -0.033655
 3431 Fit      -0.033891
 3432 Fit      -0.034092
 3433 Fit      -0.034341
 3434 Fit      -0.034893
 3435 Fit      -0.036265
 3436 Fit      -0.039294
 3437 Fit      -0.037508
 3438 Fit      -0.035432
 3439 Fit      -0.037202
 3440 Fit      -0.036513
 3441 Fit      -0.036061
 3442 Fit      -0.035691
 3443 Fit      -0.035383
 3444 Fit      -0.035185
 3445 Fit      -0.035142
 3446 Fit      -0.035267
 3447 Fit      -0.035527
 3448 Fit      -0.035869
 3449 Fit      -0.036272
 3450 Fit      -0.036811
 3451 Fit      -0.037738
 3452 Fit      -0.039530
 3453 Fit      -0.042799
 3454 Fit      -0.040945
 3455 Fit      -0.038488
 3456 Fit      -0.039346
 3457 Fit      -0.038398
 3458 Fit      -0.037778
 3459 Fit      -0.037353
 3460 Fit      -0.037123
 3461 Fit      -0.037123
 3462 Fit      -0.037353
 3463 Fit      -0.037778
 3464 Fit      -0.038398
 3465 Fit      -0.039346
 3466 Fit      -0.040949
 3467 Fit      -0.043561
 3468 Fit      -0.046968
 3469 Fit      -0.046968
 3470 Fit      -0.043561
 3471 Fit      -0.040949
 3472 Fit      -0.040928
 3473 Fit      -0.039784
 3474 Fit      -0.039142
 3475 Fit      -0.038925
 3476 Fit      -0.039142
 3477 Fit      -0.039784
 3478 Fit      -0.040928
 3479 Fit      -0.042779
 3480 Fit      -0.045067
 3481 Fit      -0.046237
 3482 Fit      -0.045067
 3483 Fit      -0.042779
 3484 Fit      -0.041898
 3485 Fit      -0.040765
 3486 Fit      -0.040765
 3487 Fit      -0.041898
 3488 Fit      -0.043597
 3489 Fit      -0.043597
 3490 Fit      -0.042226
 3491 Fit      -0.010669
 3492 Fit      -0.011834
 3493 Fit      -0.011962
 3494 Fit      -0.011962
 3495 Fit      -0.011834
 3496 Fit      -0.010669
 3497 Fit      -0.014347
 3498 Fit      -0.015776
 3499 Fit      -0.016446
 3500 Fit      -0.016388
 3501 Fit      -0.015694
 3502 Fit      -0.014556
 3503 Fit      -0.014556
 3504 Fit      -0.015694
 3505 Fit      -0.016388
 3506 Fit      -0.016446
 3507 Fit      -0.015776
 3508 Fit      -0.014347
 3509 Fit      -0.016187
 3510 Fit      -0.017190
 3511 Fit      -0.018818
 3512 Fit      -0.019891
 3513 Fit      -0.020409
 3514 Fit      -0.020430
 3515 Fit      -0.020063
 3516 Fit      -0.019473
 3517 Fit      -0.018864
 3518 Fit      -0.018441
 3519 Fit      -0.018348
 3520 Fit      -0.018618
 3521 Fit      -0.019158
 3522 Fit      -0.019784
 3523 Fit      -0.020286
 3524 Fit      -0.020476
 3525 Fit      -0.020217
 3526 Fit      -0.019425
 3527 Fit      -0.018071
 3528 Fit      -0.020273
 3529 Fit      -0.019471
 3530 Fit      -0.021034
 3531 Fit      -0.022329
 3532 Fit      -0.023234
 3533 Fit      -0.023726
 3534 Fit      -0.023850
 3535 Fit      -0.023692
 3536 Fit      -0.023374
 3537 Fit      -0.023031
 3538 Fit      -0.022791
 3539 Fit      -0.022739
 3540 Fit      -0.022892
 3541 Fit      -0.023197
 3542 Fit      -0.023544
 3543 Fit      -0.023799
 3544 Fit      -0.023830
 3545 Fit      -0.023530
 3546 Fit      -0.022833
 3547 Fit      -0.021726
 3548 Fit      -0.024252
 3549 Fit      -0.023344
 3550 Fit      -0.023344
 3551 Fit      -0.024252
 3552 Fit      -0.025226
 3553 Fit      -0.026008
 3554 Fit      -0.026504
 3555 Fit      -0.026709
 3556 Fit      -0.026674
 3557 Fit      -0.026488
 3558 Fit      -0.026252
 3559 Fit      -0.026064
 3560 Fit      -0.025992
 3561 Fit      -0.026064
 3562 Fit      -0.026252
 3563 Fit      -0.026488
 3564 Fit      -0.026674
 3565 Fit      -0.026709
 3566 Fit      -0.026504
 3567 Fit      -0.026008
 3568 Fit      -0.025226
 3569 Fit      -0.028011
 3570 Fit      -0.027756
 3571 Fit      -0.027756
 3572 Fit      -0.028011
 3573 Fit      -0.028507
 3574 Fit      -0.028943
 3575 Fit      -0.029195
 3576 Fit      -0.029246
 3577 Fit      -0.029137
 3578 Fit      -0.028947
 3579 Fit      -0.028758
 3580 Fit      -0.028643
 3581 Fit      -0.028643
 3582 Fit      -0.028758
 3583 Fit      -0.028947
 3584 Fit      -0.029137
 3585 Fit      -0.029246
 3586 Fit      -0.029195
 3587 Fit      -0.028943
 3588 Fit      -0.028507
 3589 Fit      -0.031468
 3590 Fit      -0.031810
 3591 Fit      -0.033193
 3592 Fit      -0.032315
 3593 Fit      -0.031559
 3594 Fit      -0.031471
 3595 Fit      -0.031573
 3596 Fit      -0.031635
 3597 Fit      -0.031578
 3598 Fit      -0.031417
 3599 Fit      -0.031210
 3600 Fit      -0.031031
 3601 Fit      -0.030942
 3602 Fit      -0.030973
 3603 Fit      -0.031113
 3604 Fit      -0.031314
 3605 Fit      -0.031508
 3606 Fit      -0.031622
 3607 Fit      -0.031617
 3608 Fit      -0.031517
 3609 Fit      -0.034554
 3610 Fit      -0.035432
 3611 Fit      -0.037508
 3612 Fit      -0.039294
 3613 Fit      -0.036265
 3614 Fit      -0.034893
 3615 Fit      -0.034341
 3616 Fit      -0.034092
 3617 Fit      -0.033891
 3618 Fit      -0.033655
 3619 Fit      -0.033402
 3620 Fit      -0.033193
 3621 Fit      -0.033091
 3622 Fit      -0.033126
 3623 Fit      -0.033288
 3624 Fit      -0.033527
 3625 Fit      -0.033778
 3626 Fit      -0.033994
 3627 Fit      -0.034199
 3628 Fit      -0.037202
 3629 Fit      -0.038488
 3630 Fit      -0.040945
 3631 Fit      -0.042799
 3632 Fit      -0.039530
 3633 Fit      -0.037738
 3634 Fit      -0.036811
 3635 Fit      -0.036272
 3636 Fit      -0.035869
 3637 Fit      -0.035527
 3638 Fit      -0.035267
 3639 Fit      -0.035142
 3640 Fit      -0.035185
 3641 Fit      -0.035383
 3642 Fit      -0.035691
 3643 Fit      -0.036061
 3644 Fit      -0.036513
 3645 Fit      -0.039346
 3646 Fit      -0.040949
 3647 Fit      -0.043561
 3648 Fit      -0.046968
 3649 Fit      -0.046968
 3650 Fit      -0.043561
 3651 Fit      -0.040949
 3652 Fit      -0.039346
 3653 Fit      -0.038398
 3654 Fit      -0.037778
 3655 Fit      -0.037353
 3656 Fit      -0.037123
 3657 Fit      -0.037123
 3658 Fit      -0.037353
 3659 Fit      -0.037778
 3660 Fit      -0.038398
 3661 Fit      -0.040928
 3662 Fit      -0.042779
 3663 Fit      -0.045067
 3664 Fit      -0.046237
 3665 Fit      -0.045067
 3666 Fit      -0.042779
 3667 Fit      -0.040928
 3668 Fit      -0.039784
 3669 Fit      -0.039142
 3670 Fit      -0.038925
 3671 Fit      -0.039142
 3672 Fit      -0.039784
 3673 Fit      -0.041898
 3674 Fit      -0.043597
 3675 Fit      -0.043597
 3676 Fit      -0.041898
 3677 Fit      -0.040765
 3678 Fit      -0.040765
 3679 Fit      -0.042226
 3680 Fit      -0.004163
 3681 Fit      -0.003030
 3682 Fit      -0.001592
 3683 Fit       0.000157
 3684 Fit       0.002193
 3685 Fit       0.004466
 3686 Fit       0.006891
 3687 Fit       0.009342
 3688 Fit       0.011644
 3689 Fit       0.012674
 3690 Fit       0.010524
 3691 Fit       0.008123
 3692 Fit       0.005667
 3693 Fit       0.003304
 3694 Fit       0.001141
 3695 Fit      -0.000755
 3696 Fit      -0.002350
 3697 Fit      -0.003633
 3698 Fit      -0.004624
 3699 Fit      -0.005383
 3700 Fit      -0.006038
 3701 Fit      -0.005712
 3702 Fit      -0.005026
 3703 Fit      -0.004550
 3704 Fit      -0.003515
 3705 Fit      -0.002224
 3706 Fit      -0.000657
 3707 Fit       0.001177
 3708 Fit       0.003245
 3709 Fit       0.005476
 3710 Fit       0.007756
 3711 Fit       0.006619
 3712 Fit       0.004346
 3713 Fit       0.002185
 3714 Fit       0.000228
 3715 Fit      -0.001475
 3716 Fit      -0.002903
 3717 Fit      -0.004063
 3718 Fit      -0.004982
 3719 Fit      -0.005721
 3720 Fit      -0.006052
 3721 Fit      -0.005369
 3722 Fit      -0.005035
 3723 Fit      -0.004144
 3724 Fit      -0.003025
 3725 Fit      -0.001649
 3726 Fit      -0.000007
 3727 Fit       0.001885
 3728 Fit       0.003973
 3729 Fit       0.002910
 3730 Fit       0.000910
 3731 Fit      -0.000861
 3732 Fit      -0.002371
 3733 Fit      -0.003615
 3734 Fit      -0.004615
 3735 Fit      -0.005410
 3736 Fit      -0.006061
 3737 Fit      -0.005749
 3738 Fit      -0.005668
 3739 Fit      -0.005011
 3740 Fit      -0.004127
 3741 Fit      -0.002979
 3742 Fit      -0.001544
 3743 Fit       0.000173
 3744 Fit      -0.000719
 3745 Fit      -0.002298
 3746 Fit      -0.003588
 3747 Fit      -0.004600
 3748 Fit      -0.005365
 3749 Fit      -0.005929
 3750 Fit      -0.006154
 3751 Fit      -0.006527
 3752 Fit      -0.006230
 3753 Fit      -0.005637
 3754 Fit      -0.004707
 3755 Fit      -0.003417
 3756 Fit      -0.002637
 3757 Fit      -0.004107
 3758 Fit      -0.005216
 3759 Fit      -0.005974
 3760 Fit      -0.006412
 3761 Fit      -0.006582
 3762 Fit      -0.007789
 3763 Fit      -0.008105
 3764 Fit      -0.007954
 3765 Fit      -0.007312
 3766 Fit      -0.007312
 3767 Fit      -0.007954
 3768 Fit      -0.008105
 3769 Fit      -0.007789
 3770 Fit      -0.004163
 3771 Fit      -0.005026
 3772 Fit      -0.005712
 3773 Fit      -0.006038
 3774 Fit      -0.005383
 3775 Fit      -0.004624
 3776 Fit      -0.003633
 3777 Fit      -0.002350
 3778 Fit      -0.000755
 3779 Fit       0.001141
 3780 Fit       0.003304
 3781 Fit       0.005667
 3782 Fit       0.008123
 3783 Fit       0.010524
 3784 Fit       0.012674
 3785 Fit       0.011644
 3786 Fit       0.009342
 3787 Fit       0.006891
 3788 Fit       0.004466
 3789 Fit       0.002193
 3790 Fit       0.000157
 3791 Fit      -0.001592
 3792 Fit      -0.003030
 3793 Fit      -0.004550
 3794 Fit      -0.005369
 3795 Fit      -0.006052
 3796 Fit      -0.005721
 3797 Fit      -0.004982
 3798 Fit      -0.004063
 3799 Fit      -0.002903
 3800 Fit      -0.001475
 3801 Fit       0.000228
 3802 Fit       0.002185
 3803 Fit       0.004346
 3804 Fit       0.006619
 3805 Fit       0.007756
 3806 Fit       0.005476
 3807 Fit       0.003245
 3808 Fit       0.001177
 3809 Fit      -0.000657
 3810 Fit      -0.002224
 3811 Fit      -0.003515
 3812 Fit      -0.005035
 3813 Fit      -0.005749
 3814 Fit      -0.006061
 3815 Fit      -0.005410
 3816 Fit      -0.004615
 3817 Fit      -0.003615
 3818 Fit      -0.002371
 3819 Fit      -0.000861
 3820 Fit       0.000910
 3821 Fit       0.002910
 3822 Fit       0.003973
 3823 Fit       0.001885
 3824 Fit      -0.000007
 3825 Fit      -0.001649
 3826 Fit      -0.003025
 3827 Fit      -0.004144
 3828 Fit      -0.005668
 3829 Fit      -0.006154
 3830 Fit      -0.005929
 3831 Fit      -0.005365
 3832 Fit      -0.004600
 3833 Fit      -0.003588
 3834 Fit      -0.002298
 3835 Fit      -0.000719
 3836 Fit       0.000173
 3837 Fit      -0.001544
 3838 Fit      -0.002979
 3839 Fit      -0.004127
 3840 Fit      -0.005011
 3841 Fit      -0.006527
 3842 Fit      -0.006582
 3843 Fit      -0.006412
 3844 Fit      -0.005974
 3845 Fit      -0.005216
 3846 Fit      -0.004107
 3847 Fit      -0.002637
 3848 Fit      -0.003417
 3849 Fit      -0.004707
 3850 Fit      -0.005637
 3851 Fit      -0.006230
 3852 Fit      -0.007789
 3853 Fit      -0.007789
 3854 Fit      -0.008105
 3855 Fit      -0.007954
 3856 Fit      -0.007312
 3857 Fit      -0.007312
 3858 Fit      -0.007954
 3859 Fit      -0.008105
 3860 Fit       0.013207
 3861 Fit       0.015825
 3862 Fit       0.014515
 3863 Fit       0.011890
 3864 Fit       0.007296
 3865 Fit       0.009411
 3866 Fit       0.011669
 3867 Fit       0.014086
 3868 Fit       0.014086
 3869 Fit       0.011669
 3870 Fit       0.009411
 3871 Fit       0.007296
 3872 Fit       0.003039
 3873 Fit       0.004556
 3874 Fit       0.006299
 3875 Fit       0.008264
 3876 Fit       0.010443
 3877 Fit       0.011608
 3878 Fit       0.009328
 3879 Fit       0.007254
 3880 Fit       0.005400
 3881 Fit       0.003768
 3882 Fit       0.002369
 3883 Fit       0.000954
 3884 Fit       0.002228
 3885 Fit       0.003765
 3886 Fit       0.005558
 3887 Fit       0.007588
 3888 Fit       0.009826
 3889 Fit       0.008684
 3890 Fit       0.006545
 3891 Fit       0.004630
 3892 Fit       0.002964
 3893 Fit       0.001557
 3894 Fit       0.000416
 3895 Fit      -0.000056
 3896 Fit      -0.000911
 3897 Fit       0.000280
 3898 Fit       0.001763
 3899 Fit       0.003530
 3900 Fit       0.005558
 3901 Fit       0.007803
 3902 Fit       0.010193
 3903 Fit       0.008985
 3904 Fit       0.006657
 3905 Fit       0.004514
 3906 Fit       0.002612
 3907 Fit       0.000985
 3908 Fit      -0.000352
 3909 Fit      -0.001401
 3910 Fit      -0.002197
 3911 Fit      -0.001827
 3912 Fit      -0.002523
 3913 Fit      -0.001366
 3914 Fit       0.000098
 3915 Fit       0.001865
 3916 Fit       0.003906
 3917 Fit       0.006171
 3918 Fit       0.008575
 3919 Fit       0.009793
 3920 Fit       0.007362
 3921 Fit       0.005015
 3922 Fit       0.002854
 3923 Fit       0.000945
 3924 Fit      -0.000673
 3925 Fit      -0.001982
 3926 Fit      -0.002993
 3927 Fit      -0.003757
 3928 Fit      -0.004084
 3929 Fit      -0.003400
 3930 Fit      -0.003864
 3931 Fit      -0.002714
 3932 Fit      -0.001248
 3933 Fit       0.000534
 3934 Fit       0.002604
 3935 Fit       0.004909
 3936 Fit       0.007362
 3937 Fit       0.009834
 3938 Fit       0.012151
 3939 Fit       0.011024
 3940 Fit       0.008606
 3941 Fit       0.006124
 3942 Fit       0.003732
 3943 Fit       0.001535
 3944 Fit      -0.000395
 3945 Fit      -0.002021
 3946 Fit      -0.003327
 3947 Fit      -0.004330
 3948 Fit      -0.005089
 3949 Fit      -0.005739
 3950 Fit      -0.005415
 3951 Fit      -0.004734
 3952 Fit       0.011890
 3953 Fit       0.014515
 3954 Fit       0.015825
 3955 Fit       0.013207
 3956 Fit       0.007296
 3957 Fit       0.009411
 3958 Fit       0.011669
 3959 Fit       0.014086
 3960 Fit       0.014086
 3961 Fit       0.011669
 3962 Fit       0.009411
 3963 Fit       0.007296
 3964 Fit       0.003039
 3965 Fit       0.002369
 3966 Fit       0.003768
 3967 Fit       0.005400
 3968 Fit       0.007254
 3969 Fit       0.009328
 3970 Fit       0.011608
 3971 Fit       0.010443
 3972 Fit       0.008264
 3973 Fit       0.006299
 3974 Fit       0.004556
 3975 Fit       0.000954
 3976 Fit      -0.000056
 3977 Fit       0.000416
 3978 Fit       0.001557
 3979 Fit       0.002964
 3980 Fit       0.004630
 3981 Fit       0.006545
 3982 Fit       0.008684
 3983 Fit       0.009826
 3984 Fit       0.007588
 3985 Fit       0.005558
 3986 Fit       0.003765
 3987 Fit       0.002228
 3988 Fit      -0.000911
 3989 Fit      -0.001827
 3990 Fit      -0.002197
 3991 Fit      -0.001401
 3992 Fit      -0.000352
 3993 Fit       0.000985
 3994 Fit       0.002612
 3995 Fit       0.004514
 3996 Fit       0.006657
 3997 Fit       0.008985
 3998 Fit       0.010193
 3999 Fit       0.007803
 4000 Fit       0.005558
 4001 Fit       0.003530
 4002 Fit       0.001763
 4003 Fit       0.000280
 4004 Fit      -0.002523
 4005 Fit      -0.003400
 4006 Fit      -0.004084
 4007 Fit      -0.003757
 4008 Fit      -0.002993
 4009 Fit      -0.001982
 4010 Fit      -0.000673
 4011 Fit       0.000945
 4012 Fit       0.002854
 4013 Fit       0.005015
 4014 Fit       0.007362
 4015 Fit       0.009793
 4016 Fit       0.008575
 4017 Fit       0.006171
 4018 Fit       0.003906
 4019 Fit       0.001865
 4020 Fit       0.000098
 4021 Fit      -0.001366
 4022 Fit      -0.003864
 4023 Fit      -0.004734
 4024 Fit      -0.005415
 4025 Fit      -0.005739
 4026 Fit      -0.005089
 4027 Fit      -0.004330
 4028 Fit      -0.003327
 4029 Fit      -0.002021
 4030 Fit      -0.000395
 4031 Fit       0.001535
 4032 Fit       0.003732
 4033 Fit       0.006124
 4034 Fit       0.008606
 4035 Fit       0.011024
 4036 Fit       0.012151
 4037 Fit       0.009834
 4038 Fit       0.007362
 4039 Fit       0.004909
 4040 Fit       0.002604
 4041 Fit       0.000534
 4042 Fit      -0.001248
 4043 Fit      -0.002714
 4044 Fit       0.002315
 4045 Fit       0.002593
 4046 Fit       0.003441
 4047 Fit       0.004088
 4048 Fit       0.002944
 4049 Fit       0.002384
 4050 Fit       0.002384
 4051 Fit       0.002944
 4052 Fit       0.004088
 4053 Fit       0.003441
 4054 Fit       0.002593
 4055 Fit       0.000822
 4056 Fit       0.000991
 4057 Fit       0.001519
 4058 Fit       0.001207
 4059 Fit       0.000864
 4060 Fit       0.000864
 4061 Fit       0.001207
 4062 Fit       0.001519
 4063 Fit       0.000991
 4064 Fit      -0.000925
 4065 Fit      -0.000858
 4066 Fit      -0.000767
 4067 Fit      -0.000909
 4068 Fit      -0.000909
 4069 Fit      -0.000767
 4070 Fit      -0.000858
 4071 Fit      -0.002790
 4072 Fit      -0.002814
 4073 Fit      -0.002796
 4074 Fit      -0.002796
 4075 Fit      -0.002814
 4076 Fit      -0.004621
 4077 Fit      -0.004649
 4078 Fit      -0.004649
 4079 Fit      -0.006332
 4080 Fit      -0.006332
 4081 Fit      -0.006207
 4082 Fit      -0.006216
 4083 Fit      -0.006216
 4084 Fit      -0.006194
 4085 Fit      -0.006166
 4086 Fit      -0.006187
 4087 Fit      -0.006187
 4088 Fit      -0.006166
 4089 Fit      -0.006275
 4090 Fit      -0.006238
 4091 Fit      -0.006182
 4092 Fit      -0.006267
 4093 Fit      -0.006267
 4094 Fit      -0.006182
 4095 Fit      -0.006238
 4096 Fit      -0.006470
 4097 Fit      -0.006470
 4098 Fit      -0.006435
 4099 Fit      -0.006461
 4100 Fit      -0.006471
 4101 Fit      -0.006471
 4102 Fit      -0.006461
 4103 Fit      -0.006435
 4104 Fit      -0.006470
 4105 Fit      -0.006854
 4106 Fit      -0.006935
 4107 Fit      -0.007154
 4108 Fit      -0.007293
 4109 Fit      -0.007031
 4110 Fit      -0.006875
 4111 Fit      -0.006875
 4112 Fit      -0.007031
 4113 Fit      -0.007293
 4114 Fit      -0.007154
 4115 Fit      -0.006935
 4116 Fit       0.014283
 4117 Fit       0.014987
 4118 Fit       0.015128
 4119 Fit       0.014705
 4120 Fit       0.013721
 4121 Fit       0.009912
 4122 Fit       0.011106
 4123 Fit       0.011875
 4124 Fit       0.012206
 4125 Fit       0.012095
 4126 Fit       0.011544
 4127 Fit       0.010561
 4128 Fit       0.009159
 4129 Fit       0.005728
 4130 Fit       0.007158
 4131 Fit       0.008286
 4132 Fit       0.009084
 4133 Fit       0.009533
 4134 Fit       0.009623
 4135 Fit       0.009353
 4136 Fit       0.008727
 4137 Fit       0.007761
 4138 Fit       0.006478
 4139 Fit       0.004913
 4140 Fit       0.001776
 4141 Fit       0.003266
 4142 Fit       0.004569
 4143 Fit       0.005630
 4144 Fit       0.006413
 4145 Fit       0.006891
 4146 Fit       0.007052
 4147 Fit       0.006891
 4148 Fit       0.006413
 4149 Fit       0.005630
 4150 Fit       0.004569
 4151 Fit       0.003266
 4152 Fit       0.001776
 4153 Fit      -0.000686
 4154 Fit       0.000734
 4155 Fit       0.001981
 4156 Fit       0.002988
 4157 Fit       0.003710
 4158 Fit       0.004120
 4159 Fit       0.004202
 4160 Fit       0.003955
 4161 Fit       0.003387
 4162 Fit       0.002518
 4163 Fit       0.001384
 4164 Fit       0.000041
 4165 Fit      -0.001432
 4166 Fit      -0.005318
 4167 Fit      -0.003757
 4168 Fit      -0.002288
 4169 Fit      -0.001030
 4170 Fit      -0.000059
 4171 Fit       0.000579
 4172 Fit       0.000857
 4173 Fit       0.000764
 4174 Fit       0.000304
 4175 Fit      -0.000505
 4176 Fit      -0.001627
 4177 Fit      -0.003002
 4178 Fit      -0.004535
 4179 Fit      -0.009664
 4180 Fit      -0.007847
 4181 Fit      -0.006214
 4182 Fit      -0.004883
 4183 Fit      -0.003926
 4184 Fit      -0.003383
 4185 Fit      -0.003274
 4186 Fit      -0.003602
 4187 Fit      -0.004355
 4188 Fit      -0.005505
 4189 Fit      -0.006998
 4190 Fit      -0.008743
 4191 Fit      -0.010896
 4192 Fit      -0.009502
 4193 Fit      -0.008718
 4194 Fit      -0.008560
 4195 Fit      -0.009032
 4196 Fit      -0.010125
 4197 Fit       0.013721
 4198 Fit       0.014705
 4199 Fit       0.015128
 4200 Fit       0.014987
 4201 Fit       0.014283
 4202 Fit       0.009159
 4203 Fit       0.010561
 4204 Fit       0.011544
 4205 Fit       0.012095
 4206 Fit       0.012206
 4207 Fit       0.011875
 4208 Fit       0.011106
 4209 Fit       0.009912
 4210 Fit       0.004913
 4211 Fit       0.006478
 4212 Fit       0.007761
 4213 Fit       0.008727
 4214 Fit       0.009353
 4215 Fit       0.009623
 4216 Fit       0.009533
 4217 Fit       0.009084
 4218 Fit       0.008286
 4219 Fit       0.007158
 4220 Fit       0.005728
 4221 Fit       0.001776
 4222 Fit       0.003266
 4223 Fit       0.004569
 4224 Fit       0.005630
 4225 Fit       0.006413
 4226 Fit       0.006891
 4227 Fit       0.007052
 4228 Fit       0.006891
 4229 Fit       0.006413
 4230 Fit       0.005630
 4231 Fit       0.004569
 4232 Fit       0.003266
 4233 Fit       0.001776
 4234 Fit      -0.001432
 4235 Fit       0.000041
 4236 Fit       0.001384
 4237 Fit       0.002518
 4238 Fit       0.003387
 4239 Fit       0.003955
 4240 Fit       0.004202
 4241 Fit       0.004120
 4242 Fit       0.003710
 4243 Fit       0.002988
 4244 Fit       0.001981
 4245 Fit       0.000734
 4246 Fit      -0.000686
 4247 Fit      -0.004535
 4248 Fit      -0.003002
 4249 Fit      -0.001627
 4250 Fit      -0.000505
 4251 Fit       0.000304
 4252 Fit       0.000764
 4253 Fit       0.000857
 4254 Fit       0.000579
 4255 Fit      -0.000059
 4256 Fit      -0.001030
 4257 Fit      -0.002288
 4258 Fit      -0.003757
 4259 Fit      -0.005318
 4260 Fit      -0.008743
 4261 Fit      -0.006998
 4262 Fit      -0.005505
 4263 Fit      -0.004355
 4264 Fit      -0.003602
 4265 Fit      -0.003274
 4266 Fit      -0.003383
 4267 Fit      -0.003926
 4268 Fit      -0.004883
 4269 Fit      -0.006214
 4270 Fit      -0.007847
 4271 Fit      -0.009664
 4272 Fit      -0.010125
 4273 Fit      -0.009032
 4274 Fit      -0.008560
 4275 Fit      -0.008718
 4276 Fit      -0.009502
 4277 Fit      -0.010896
 4278 Fit       0.031709
 4279 Fit       0.031246
 4280 Fit       0.031246
 4281 Fit       0.031709
 4282 Fit       0.027225
 4283 Fit       0.026888
 4284 Fit       0.026757
 4285 Fit       0.026721
 4286 Fit       0.026717
 4287 Fit       0.026733
 4288 Fit       0.026805
 4289 Fit       0.027022
 4290 Fit       0.021976
 4291 Fit       0.022334
 4292 Fit       0.022702
 4293 Fit       0.023049
 4294 Fit       0.023327
 4295 Fit       0.023494
 4296 Fit       0.023529
 4297 Fit       0.023426
 4298 Fit       0.023199
 4299 Fit       0.022881
 4300 Fit       0.022517
 4301 Fit       0.022153
 4302 Fit       0.018123
 4303 Fit       0.019017
 4304 Fit       0.019780
 4305 Fit       0.020391
 4306 Fit       0.020828
 4307 Fit       0.021077
 4308 Fit       0.021128
 4309 Fit       0.020977
 4310 Fit       0.020632
 4311 Fit       0.020105
 4312 Fit       0.019416
 4313 Fit       0.018585
 4314 Fit       0.017629
 4315 Fit       0.014605
 4316 Fit       0.015927
 4317 Fit       0.017044
 4318 Fit       0.017944
 4319 Fit       0.018614
 4320 Fit       0.019045
 4321 Fit       0.019231
 4322 Fit       0.019169
 4323 Fit       0.018860
 4324 Fit       0.018308
 4325 Fit       0.017522
 4326 Fit       0.016512
 4327 Fit       0.015291
 4328 Fit       0.013223
 4329 Fit       0.014634
 4330 Fit       0.015783
 4331 Fit       0.016667
 4332 Fit       0.017282
 4333 Fit       0.017625
 4334 Fit       0.017693
 4335 Fit       0.017488
 4336 Fit       0.017009
 4337 Fit       0.016259
 4338 Fit       0.015241
 4339 Fit       0.013961
 4340 Fit       0.012422
 4341 Fit       0.011005
 4342 Fit       0.012677
 4343 Fit       0.014041
 4344 Fit       0.015100
 4345 Fit       0.015856
 4346 Fit       0.016310
 4347 Fit       0.016462
 4348 Fit       0.016310
 4349 Fit       0.015856
 4350 Fit       0.015100
 4351 Fit       0.014041
 4352 Fit       0.012677
 4353 Fit       0.011005
 4354 Fit       0.011453
 4355 Fit       0.012999
 4356 Fit       0.014174
 4357 Fit       0.014985
 4358 Fit       0.015434
 4359 Fit       0.015524
 4360 Fit       0.015255
 4361 Fit       0.014624
 4362 Fit       0.013632
 4363 Fit       0.012273
 4364 Fit       0.010539
 4365 Fit       0.012678
 4366 Fit       0.013906
 4367 Fit       0.014685
 4368 Fit       0.015019
 4369 Fit       0.014908
 4370 Fit       0.014352
 4371 Fit       0.013349
 4372 Fit       0.011893
 4373 Fit       0.014370
 4374 Fit       0.015057
 4375 Fit       0.015195
 4376 Fit       0.014782
 4377 Fit       0.013821
 4378 Fit       0.031709
 4379 Fit       0.031246
 4380 Fit       0.031246
 4381 Fit       0.031709
 4382 Fit       0.027022
 4383 Fit       0.026805
 4384 Fit       0.026733
 4385 Fit       0.026717
 4386 Fit       0.026721
 4387 Fit       0.026757
 4388 Fit       0.026888
 4389 Fit       0.027225
 4390 Fit       0.022153
 4391 Fit       0.022517
 4392 Fit       0.022881
 4393 Fit       0.023199
 4394 Fit       0.023426
 4395 Fit       0.023529
 4396 Fit       0.023494
 4397 Fit       0.023327
 4398 Fit       0.023049
 4399 Fit       0.022702
 4400 Fit       0.022334
 4401 Fit       0.021976
 4402 Fit       0.017629
 4403 Fit       0.018585
 4404 Fit       0.019416
 4405 Fit       0.020105
 4406 Fit       0.020632
 4407 Fit       0.020977
 4408 Fit       0.021128
 4409 Fit       0.021077
 4410 Fit       0.020828
 4411 Fit       0.020391
 4412 Fit       0.019780
 4413 Fit       0.019017
 4414 Fit       0.018123
 4415 Fit       0.015291
 4416 Fit       0.016512
 4417 Fit       0.017522
 4418 Fit       0.018308
 4419 Fit       0.018860
 4420 Fit       0.019169
 4421 Fit       0.019231
 4422 Fit       0.019045
 4423 Fit       0.018614
 4424 Fit       0.017944
 4425 Fit       0.017044
 4426 Fit       0.015927
 4427 Fit       0.014605
 4428 Fit       0.012422
 4429 Fit       0.013961
 4430 Fit       0.015241
 4431 Fit       0.016259
 4432 Fit       0.017009
 4433 Fit       0.017488
 4434 Fit       0.017693
 4435 Fit       0.017625
 4436 Fit       0.017282
 4437 Fit       0.016667
 4438 Fit       0.015783
 4439 Fit       0.014634
 4440 Fit       0.013223
 4441 Fit       0.011005
 4442 Fit       0.012677
 4443 Fit       0.014041
 4444 Fit       0.015100
 4445 Fit       0.015856
 4446 Fit       0.016310
 4447 Fit       0.016462
 4448 Fit       0.016310
 4449 Fit       0.015856
 4450 Fit       0.015100
 4451 Fit       0.014041
 4452 Fit       0.012677
 4453 Fit       0.011005
 4454 Fit       0.010539
 4455 Fit       0.012273
 4456 Fit       0.013632
 4457 Fit       0.014624
 4458 Fit       0.015255
 4459 Fit       0.015524
 4460 Fit       0.015434
 4461 Fit       0.014985
 4462 Fit       0.014174
 4463 Fit       0.012999
 4464 Fit       0.011453
 4465 Fit       0.011893
 4466 Fit       0.013349
 4467 Fit       0.014352
 4468 Fit       0.014908
 4469 Fit       0.015019
 4470 Fit       0.014685
 4471 Fit       0.013906
 4472 Fit       0.012678
 4473 Fit       0.013821
 4474 Fit       0.014782
 4475 Fit       0.015195
 4476 Fit       0.015057
 4477 Fit       0.014370
 4478 Fit      -0.007322
 4479 Fit      -0.007461
 4480 Fit      -0.007858
 4481 Fit      -0.008451
 4482 Fit      -0.008788
 4483 Fit      -0.008136
 4484 Fit      -0.007630
 4485 Fit      -0.007357
 4486 Fit      -0.007357
 4487 Fit      -0.007630
 4488 Fit      -0.008136
 4489 Fit      -0.008788
 4490 Fit      -0.008451
 4491 Fit      -0.007858
 4492 Fit      -0.007461
 4493 Fit      -0.008966
 4494 Fit      -0.009202
 4495 Fit      -0.009896
 4496 Fit      -0.011003
 4497 Fit      -0.010402
 4498 Fit      -0.009494
 4499 Fit      -0.009026
 4500 Fit      -0.009026
 4501 Fit      -0.009494
 4502 Fit      -0.010402
 4503 Fit      -0.011003
 4504 Fit      -0.009896
 4505 Fit      -0.009202
 4506 Fit      -0.011323
 4507 Fit      -0.011648
 4508 Fit      -0.012609
 4509 Fit      -0.013319
 4510 Fit      -0.012050
 4511 Fit      -0.011404
 4512 Fit      -0.011404
 4513 Fit      -0.012050
 4514 Fit      -0.013319
 4515 Fit      -0.012609
 4516 Fit      -0.011648
 4517 Fit      -0.014255
 4518 Fit      -0.014651
 4519 Fit      -0.015827
 4520 Fit      -0.015143
 4521 Fit      -0.014354
 4522 Fit      -0.014354
 4523 Fit      -0.015143
 4524 Fit      -0.015827
 4525 Fit      -0.014651
 4526 Fit      -0.017637
 4527 Fit      -0.018125
 4528 Fit      -0.018730
 4529 Fit      -0.017759
 4530 Fit      -0.017759
 4531 Fit      -0.018730
 4532 Fit      -0.018125
 4533 Fit      -0.021356
 4534 Fit      -0.021948
 4535 Fit      -0.021948
 4536 Fit      -0.021356
 4537 Fit      -0.021948
 4538 Fit      -0.021948
 4539 Fit      -0.025294
 4540 Fit      -0.025466
 4541 Fit      -0.025466
 4542 Fit      -0.029324
 4543 Fit       0.030140
 4544 Fit       0.029761
 4545 Fit       0.030301
 4546 Fit       0.030301
 4547 Fit       0.029761
 4548 Fit       0.030301
 4549 Fit       0.030301
 4550 Fit       0.028652
 4551 Fit       0.029341
 4552 Fit       0.030752
 4553 Fit       0.030752
 4554 Fit       0.029341
 4555 Fit       0.028652
 4556 Fit       0.029341
 4557 Fit       0.030752
 4558 Fit       0.030752
 4559 Fit       0.029341
 4560 Fit       0.026895
 4561 Fit       0.027568
 4562 Fit       0.029320
 4563 Fit       0.029320
 4564 Fit       0.027568
 4565 Fit       0.026895
 4566 Fit       0.027568
 4567 Fit       0.029320
 4568 Fit       0.029320
 4569 Fit       0.027568
 4570 Fit       0.024614
 4571 Fit       0.025288
 4572 Fit       0.027166
 4573 Fit       0.026097
 4574 Fit       0.024785
 4575 Fit       0.024785
 4576 Fit       0.026097
 4577 Fit       0.027166
 4578 Fit       0.025288
 4579 Fit       0.021962
 4580 Fit       0.022553
 4581 Fit       0.024258
 4582 Fit       0.025469
 4583 Fit       0.023276
 4584 Fit       0.022111
 4585 Fit       0.022111
 4586 Fit       0.023276
 4587 Fit       0.025469
 4588 Fit       0.024258
 4589 Fit       0.022553
 4590 Fit       0.019104
 4591 Fit       0.019676
 4592 Fit       0.021350
 4593 Fit       0.023990
 4594 Fit       0.022561
 4595 Fit       0.020381
 4596 Fit       0.019248
 4597 Fit       0.019248
 4598 Fit       0.020381
 4599 Fit       0.022561
 4600 Fit       0.023990
 4601 Fit       0.021350
 4602 Fit       0.019676
 4603 Fit       0.016199
 4604 Fit       0.016729
 4605 Fit       0.018292
 4606 Fit       0.020804
 4607 Fit       0.022369
 4608 Fit       0.019437
 4609 Fit       0.017385
 4610 Fit       0.016332
 4611 Fit       0.016332
 4612 Fit       0.017385
 4613 Fit       0.019437
 4614 Fit       0.022369
 4615 Fit       0.020804
 4616 Fit       0.018292
 4617 Fit       0.016729
 4618 Fit       0.013388
 4619 Fit       0.013888
 4620 Fit       0.015367
 4621 Fit       0.017767
 4622 Fit       0.020976
 4623 Fit       0.020976
 4624 Fit       0.017767
 4625 Fit       0.015367
 4626 Fit       0.013888
 4627 Fit       0.013388
 4628 Fit       0.013888
 4629 Fit       0.015367
 4630 Fit       0.017767
 4631 Fit       0.020976
 4632 Fit       0.020976
 4633 Fit       0.017767
 4634 Fit       0.015367
 4635 Fit       0.013888
 4636 Fit       0.010781
 4637 Fit       0.011235
 4638 Fit       0.012587
 4639 Fit       0.014796
 4640 Fit       0.017787
 4641 Fit       0.019538
 4642 Fit       0.016200
 4643 Fit       0.013588
 4644 Fit       0.011801
 4645 Fit       0.010895
 4646 Fit       0.010895
 4647 Fit       0.011801
 4648 Fit       0.013588
 4649 Fit       0.016200
 4650 Fit       0.019538
 4651 Fit       0.017787
 4652 Fit       0.014796
 4653 Fit       0.012587
 4654 Fit       0.011235
 4655 Fit       0.008441
 4656 Fit       0.008861
 4657 Fit       0.010112
 4658 Fit       0.012167
 4659 Fit       0.014975
 4660 Fit       0.018449
 4661 Fit       0.020393
 4662 Fit       0.016636
 4663 Fit       0.013482
 4664 Fit       0.011041
 4665 Fit       0.009384
 4666 Fit       0.008546
 4667 Fit       0.008546
 4668 Fit       0.009384
 4669 Fit       0.011041
 4670 Fit       0.013482
 4671 Fit       0.016636
 4672 Fit       0.020393
 4673 Fit       0.018449
 4674 Fit       0.014975
 4675 Fit       0.012167
 4676 Fit       0.010112
 4677 Fit       0.008861
 4678 Fit       0.006382
 4679 Fit       0.006789
 4680 Fit       0.008004
 4681 Fit       0.010012
 4682 Fit       0.012780
 4683 Fit       0.016250
 4684 Fit       0.020325
 4685 Fit       0.022542
 4686 Fit       0.018220
 4687 Fit       0.014432
 4688 Fit       0.011304
 4689 Fit       0.008911
 4690 Fit       0.007296
 4691 Fit       0.006484
 4692 Fit       0.006484
 4693 Fit       0.007296
 4694 Fit       0.008911
 4695 Fit       0.011304
 4696 Fit       0.014432
 4697 Fit       0.018220
 4698 Fit       0.022542
 4699 Fit       0.020325
 4700 Fit       0.016250
 4701 Fit       0.012780
 4702 Fit       0.010012
 4703 Fit       0.008004
 4704 Fit       0.006789
 4705 Fit       0.004555
 4706 Fit       0.004928
 4707 Fit       0.006047
 4708 Fit       0.007914
 4709 Fit       0.010527
 4710 Fit       0.013881
 4711 Fit       0.012112
 4712 Fit       0.009128
 4713 Fit       0.006887
 4714 Fit       0.005394
 4715 Fit       0.004648
 4716 Fit       0.004648
 4717 Fit       0.005394
 4718 Fit       0.006887
 4719 Fit       0.009128
 4720 Fit       0.012112
 4721 Fit       0.013881
 4722 Fit       0.010527
 4723 Fit       0.007914
 4724 Fit       0.006047
 4725 Fit       0.004928
 4726 Fit       0.002839
 4727 Fit       0.003151
 4728 Fit       0.004097
 4729 Fit       0.005700
 4730 Fit       0.004814
 4731 Fit       0.003544
 4732 Fit       0.002917
 4733 Fit       0.002917
 4734 Fit       0.003544
 4735 Fit       0.004814
 4736 Fit       0.005700
 4737 Fit       0.004097
 4738 Fit       0.003151
 4739 Fit       0.031031
 4740 Fit       0.030724
 4741 Fit       0.030647
 4742 Fit       0.030647
 4743 Fit       0.030724
 4744 Fit       0.029809
 4745 Fit       0.029898
 4746 Fit       0.030380
 4747 Fit       0.030620
 4748 Fit       0.030380
 4749 Fit       0.029898
 4750 Fit       0.029809
 4751 Fit       0.028607
 4752 Fit       0.029381
 4753 Fit       0.030159
 4754 Fit       0.030627
 4755 Fit       0.030627
 4756 Fit       0.030159
 4757 Fit       0.029381
 4758 Fit       0.028607
 4759 Fit       0.026856
 4760 Fit       0.027946
 4761 Fit       0.029110
 4762 Fit       0.030080
 4763 Fit       0.030676
 4764 Fit       0.030800
 4765 Fit       0.030433
 4766 Fit       0.029633
 4767 Fit       0.028538
 4768 Fit       0.027371
 4769 Fit       0.024701
 4770 Fit       0.026178
 4771 Fit       0.027729
 4772 Fit       0.029121
 4773 Fit       0.030189
 4774 Fit       0.030821
 4775 Fit       0.030951
 4776 Fit       0.030565
 4777 Fit       0.029704
 4778 Fit       0.028457
 4779 Fit       0.026961
 4780 Fit       0.025412
 4781 Fit       0.024037
 4782 Fit       0.025957
 4783 Fit       0.027734
 4784 Fit       0.029234
 4785 Fit       0.030349
 4786 Fit       0.030998
 4787 Fit       0.031131
 4788 Fit       0.030736
 4789 Fit       0.029845
 4790 Fit       0.028526
 4791 Fit       0.026873
 4792 Fit       0.025004
 4793 Fit       0.023079
 4794 Fit       0.021864
 4795 Fit       0.024253
 4796 Fit       0.026465
 4797 Fit       0.028385
 4798 Fit       0.029908
 4799 Fit       0.030937
 4800 Fit       0.031395
 4801 Fit       0.031241
 4802 Fit       0.030490
 4803 Fit       0.029202
 4804 Fit       0.027468
 4805 Fit       0.025388
 4806 Fit       0.023072
 4807 Fit       0.022340
 4808 Fit       0.024978
 4809 Fit       0.027338
 4810 Fit       0.029321
 4811 Fit       0.030813
 4812 Fit       0.031692
 4813 Fit       0.031873
 4814 Fit       0.031336
 4815 Fit       0.030136
 4816 Fit       0.028383
 4817 Fit       0.026198
 4818 Fit       0.023688
 4819 Fit       0.023619
 4820 Fit       0.026482
 4821 Fit       0.029011
 4822 Fit       0.031049
 4823 Fit       0.031049
 4824 Fit       0.029011
 4825 Fit       0.026482
 4826 Fit       0.023619
 4827 Fit       0.031031
 4828 Fit       0.030724
 4829 Fit       0.030724
 4830 Fit       0.030647
 4831 Fit       0.030647
 4832 Fit       0.029809
 4833 Fit       0.029809
 4834 Fit       0.029898
 4835 Fit       0.030380
 4836 Fit       0.030620
 4837 Fit       0.030380
 4838 Fit       0.029898
 4839 Fit       0.028607
 4840 Fit       0.029381
 4841 Fit       0.030159
 4842 Fit       0.030627
 4843 Fit       0.030627
 4844 Fit       0.030159
 4845 Fit       0.029381
 4846 Fit       0.028607
 4847 Fit       0.027371
 4848 Fit       0.028538
 4849 Fit       0.029633
 4850 Fit       0.030433
 4851 Fit       0.030800
 4852 Fit       0.030676
 4853 Fit       0.030080
 4854 Fit       0.029110
 4855 Fit       0.027946
 4856 Fit       0.026856
 4857 Fit       0.025412
 4858 Fit       0.026961
 4859 Fit       0.028457
 4860 Fit       0.029704
 4861 Fit       0.030565
 4862 Fit       0.030951
 4863 Fit       0.030821
 4864 Fit       0.030189
 4865 Fit       0.029121
 4866 Fit       0.027729
 4867 Fit       0.026178
 4868 Fit       0.024701
 4869 Fit       0.023079
 4870 Fit       0.025004
 4871 Fit       0.026873
 4872 Fit       0.028526
 4873 Fit       0.029845
 4874 Fit       0.030736
 4875 Fit       0.031131
 4876 Fit       0.030998
 4877 Fit       0.030349
 4878 Fit       0.029234
 4879 Fit       0.027734
 4880 Fit       0.025957
 4881 Fit       0.024037
 4882 Fit       0.023072
 4883 Fit       0.025388
 4884 Fit       0.027468
 4885 Fit       0.029202
 4886 Fit       0.030490
 4887 Fit       0.031241
 4888 Fit       0.031395
 4889 Fit       0.030937
 4890 Fit       0.029908
 4891 Fit       0.028385
 4892 Fit       0.026465
 4893 Fit       0.024253
 4894 Fit       0.021864
 4895 Fit       0.023688
 4896 Fit       0.026198
 4897 Fit       0.028383
 4898 Fit       0.030136
 4899 Fit       0.031336
 4900 Fit       0.031873
 4901 Fit       0.031692
 4902 Fit       0.030813
 4903 Fit       0.029321
 4904 Fit       0.027338
 4905 Fit       0.024978
 4906 Fit       0.022340
 4907 Fit       0.023619
 4908 Fit       0.026482
 4909 Fit       0.029011
 4910 Fit       0.031049
 4911 Fit       0.031049
 4912 Fit       0.029011
 4913 Fit       0.026482
 4914 Fit       0.023619
 4915 Fit      -0.010538
 4916 Fit      -0.010572
 4917 Fit      -0.010040
 4918 Fit      -0.010040
 4919 Fit      -0.010572
 4920 Fit      -0.010538
 4921 Fit      -0.012742
 4922 Fit      -0.013499
 4923 Fit      -0.013843
 4924 Fit      -0.013763
 4925 Fit      -0.013287
 4926 Fit      -0.012489
 4927 Fit      -0.011499
 4928 Fit      -0.012008
 4929 Fit      -0.012922
 4930 Fit      -0.013571
 4931 Fit      -0.013855
 4932 Fit      -0.013724
 4933 Fit      -0.013171
 4934 Fit      -0.012221
 4935 Fit      -0.014626
 4936 Fit      -0.015616
 4937 Fit      -0.016361
 4938 Fit      -0.016805
 4939 Fit      -0.016938
 4940 Fit      -0.016784
 4941 Fit      -0.016399
 4942 Fit      -0.015871
 4943 Fit      -0.015313
 4944 Fit      -0.014848
 4945 Fit      -0.014584
 4946 Fit      -0.014584
 4947 Fit      -0.014848
 4948 Fit      -0.015313
 4949 Fit      -0.015871
 4950 Fit      -0.016399
 4951 Fit      -0.016784
 4952 Fit      -0.016938
 4953 Fit      -0.016805
 4954 Fit      -0.016361
 4955 Fit      -0.015616
 4956 Fit      -0.014626
 4957 Fit      -0.017743
 4958 Fit      -0.018497
 4959 Fit      -0.019113
 4960 Fit      -0.019521
 4961 Fit      -0.019700
 4962 Fit      -0.019667
 4963 Fit      -0.019464
 4964 Fit      -0.019158
 4965 Fit      -0.018825
 4966 Fit      -0.018546
 4967 Fit      -0.018387
 4968 Fit      -0.018387
 4969 Fit      -0.018546
 4970 Fit      -0.018825
 4971 Fit      -0.019158
 4972 Fit      -0.019464
 4973 Fit      -0.019667
 4974 Fit      -0.019700
 4975 Fit      -0.019521
 4976 Fit      -0.019113
 4977 Fit      -0.018497
 4978 Fit      -0.017743
 4979 Fit      -0.020826
 4980 Fit      -0.021299
 4981 Fit      -0.021728
 4982 Fit      -0.022024
 4983 Fit      -0.022158
 4984 Fit      -0.022138
 4985 Fit      -0.021997
 4986 Fit      -0.021787
 4987 Fit      -0.021568
 4988 Fit      -0.021396
 4989 Fit      -0.021313
 4990 Fit      -0.021341
 4991 Fit      -0.021473
 4992 Fit      -0.021675
 4993 Fit      -0.021897
 4994 Fit      -0.022080
 4995 Fit      -0.022166
 4996 Fit      -0.022112
 4997 Fit      -0.021895
 4998 Fit      -0.021526
 4999 Fit      -0.021060
 5000 Fit      -0.020624
 5001 Fit      -0.020487
 5002 Fit      -0.023782
 5003 Fit      -0.023956
 5004 Fit      -0.024168
 5005 Fit      -0.024319
 5006 Fit      -0.024370
 5007 Fit      -0.024319
 5008 Fit      -0.024191
 5009 Fit      -0.024024
 5010 Fit      -0.023863
 5011 Fit      -0.023748
 5012 Fit      -0.023706
 5013 Fit      -0.023748
 5014 Fit      -0.023863
 5015 Fit      -0.024024
 5016 Fit      -0.024191
 5017 Fit      -0.024319
 5018 Fit      -0.024370
 5019 Fit      -0.024319
 5020 Fit      -0.024168
 5021 Fit      -0.023956
 5022 Fit      -0.023782
 5023 Fit      -0.023834
 5024 Fit      -0.023834
 5025 Fit      -0.026543
 5026 Fit      -0.026437
 5027 Fit      -0.026436
 5028 Fit      -0.026429
 5029 Fit      -0.026368
 5030 Fit      -0.026251
 5031 Fit      -0.026097
 5032 Fit      -0.025943
 5033 Fit      -0.025823
 5034 Fit      -0.025766
 5035 Fit      -0.025785
 5036 Fit      -0.025876
 5037 Fit      -0.026018
 5038 Fit      -0.026177
 5039 Fit      -0.026316
 5040 Fit      -0.026406
 5041 Fit      -0.026437
 5042 Fit      -0.026432
 5043 Fit      -0.026467
 5044 Fit      -0.026697
 5045 Fit      -0.027395
 5046 Fit      -0.028050
 5047 Fit      -0.026964
 5048 Fit      -0.029057
 5049 Fit      -0.028686
 5050 Fit      -0.028483
 5051 Fit      -0.028323
 5052 Fit      -0.028155
 5053 Fit      -0.027975
 5054 Fit      -0.027805
 5055 Fit      -0.027677
 5056 Fit      -0.027616
 5057 Fit      -0.027636
 5058 Fit      -0.027734
 5059 Fit      -0.027887
 5060 Fit      -0.028066
 5061 Fit      -0.028241
 5062 Fit      -0.028402
 5063 Fit      -0.028574
 5064 Fit      -0.028839
 5065 Fit      -0.029372
 5066 Fit      -0.030468
 5067 Fit      -0.032574
 5068 Fit      -0.031360
 5069 Fit      -0.029825
 5070 Fit      -0.031278
 5071 Fit      -0.030677
 5072 Fit      -0.030297
 5073 Fit      -0.030008
 5074 Fit      -0.029761
 5075 Fit      -0.029552
 5076 Fit      -0.029401
 5077 Fit      -0.029331
 5078 Fit      -0.029355
 5079 Fit      -0.029468
 5080 Fit      -0.029651
 5081 Fit      -0.029881
 5082 Fit      -0.030145
 5083 Fit      -0.030470
 5084 Fit      -0.030939
 5085 Fit      -0.031729
 5086 Fit      -0.033127
 5087 Fit      -0.035519
 5088 Fit      -0.034173
 5089 Fit      -0.032330
 5090 Fit      -0.033165
 5091 Fit      -0.032367
 5092 Fit      -0.031842
 5093 Fit      -0.031463
 5094 Fit      -0.031184
 5095 Fit      -0.031005
 5096 Fit      -0.030943
 5097 Fit      -0.031005
 5098 Fit      -0.031184
 5099 Fit      -0.031463
 5100 Fit      -0.031842
 5101 Fit      -0.032367
 5102 Fit      -0.033165
 5103 Fit      -0.034463
 5104 Fit      -0.036546
 5105 Fit      -0.036546
 5106 Fit      -0.034463
 5107 Fit      -0.034679
 5108 Fit      -0.033707
 5109 Fit      -0.033086
 5110 Fit      -0.032692
 5111 Fit      -0.032493
 5112 Fit      -0.032493
 5113 Fit      -0.032692
 5114 Fit      -0.033086
 5115 Fit      -0.033707
 5116 Fit      -0.034679
 5117 Fit      -0.036212
 5118 Fit      -0.038446
 5119 Fit      -0.041059
 5120 Fit      -0.041059
 5121 Fit      -0.038446
 5122 Fit      -0.036212
 5123 Fit      -0.035787
 5124 Fit      -0.034703
 5125 Fit      -0.034105
 5126 Fit      -0.033911
 5127 Fit      -0.034105
 5128 Fit      -0.034703
 5129 Fit      -0.035787
 5130 Fit      -0.037456
 5131 Fit      -0.039349
 5132 Fit      -0.040261
 5133 Fit      -0.039349
 5134 Fit      -0.037456
 5135 Fit      -0.036463
 5136 Fit      -0.035429
 5137 Fit      -0.035429
 5138 Fit      -0.036463
 5139 Fit      -0.037956
 5140 Fit      -0.037956
 5141 Fit      -0.036690
 5142 Fit      -0.010538
 5143 Fit      -0.010572
 5144 Fit      -0.010040
 5145 Fit      -0.010040
 5146 Fit      -0.010572
 5147 Fit      -0.010538
 5148 Fit      -0.012221
 5149 Fit      -0.013171
 5150 Fit      -0.013724
 5151 Fit      -0.013855
 5152 Fit      -0.013571
 5153 Fit      -0.012922
 5154 Fit      -0.012008
 5155 Fit      -0.011499
 5156 Fit      -0.012489
 5157 Fit      -0.013287
 5158 Fit      -0.013763
 5159 Fit      -0.013843
 5160 Fit      -0.013499
 5161 Fit      -0.012742
 5162 Fit      -0.014626
 5163 Fit      -0.014626
 5164 Fit      -0.015616
 5165 Fit      -0.016361
 5166 Fit      -0.016805
 5167 Fit      -0.016938
 5168 Fit      -0.016784
 5169 Fit      -0.016399
 5170 Fit      -0.015871
 5171 Fit      -0.015313
 5172 Fit      -0.014848
 5173 Fit      -0.014584
 5174 Fit      -0.014584
 5175 Fit      -0.014848
 5176 Fit      -0.015313
 5177 Fit      -0.015871
 5178 Fit      -0.016399
 5179 Fit      -0.016784
 5180 Fit      -0.016938
 5181 Fit      -0.016805
 5182 Fit      -0.016361
 5183 Fit      -0.015616
 5184 Fit      -0.017743
 5185 Fit      -0.017743
 5186 Fit      -0.018497
 5187 Fit      -0.019113
 5188 Fit      -0.019521
 5189 Fit      -0.019700
 5190 Fit      -0.019667
 5191 Fit      -0.019464
 5192 Fit      -0.019158
 5193 Fit      -0.018825
 5194 Fit      -0.018546
 5195 Fit      -0.018387
 5196 Fit      -0.018387
 5197 Fit      -0.018546
 5198 Fit      -0.018825
 5199 Fit      -0.019158
 5200 Fit      -0.019464
 5201 Fit      -0.019667
 5202 Fit      -0.019700
 5203 Fit      -0.019521
 5204 Fit      -0.019113
 5205 Fit      -0.018497
 5206 Fit      -0.020826
 5207 Fit      -0.020487
 5208 Fit      -0.020624
 5209 Fit      -0.021060
 5210 Fit      -0.021526
 5211 Fit      -0.021895
 5212 Fit      -0.022112
 5213 Fit      -0.022166
 5214 Fit      -0.022080
 5215 Fit      -0.021897
 5216 Fit      -0.021675
 5217 Fit      -0.021473
 5218 Fit      -0.021341
 5219 Fit      -0.021313
 5220 Fit      -0.021396
 5221 Fit      -0.021568
 5222 Fit      -0.021787
 5223 Fit      -0.021997
 5224 Fit      -0.022138
 5225 Fit      -0.022158
 5226 Fit      -0.022024
 5227 Fit      -0.021728
 5228 Fit      -0.021299
 5229 Fit      -0.023782
 5230 Fit      -0.023834
 5231 Fit      -0.023834
 5232 Fit      -0.023782
 5233 Fit      -0.023956
 5234 Fit      -0.024168
 5235 Fit      -0.024319
 5236 Fit      -0.024370
 5237 Fit      -0.024319
 5238 Fit      -0.024191
 5239 Fit      -0.024024
 5240 Fit      -0.023863
 5241 Fit      -0.023748
 5242 Fit      -0.023706
 5243 Fit      -0.023748
 5244 Fit      -0.023863
 5245 Fit      -0.024024
 5246 Fit      -0.024191
 5247 Fit      -0.024319
 5248 Fit      -0.024370
 5249 Fit      -0.024319
 5250 Fit      -0.024168
 5251 Fit      -0.023956
 5252 Fit      -0.026543
 5253 Fit      -0.026964
 5254 Fit      -0.028050
 5255 Fit      -0.027395
 5256 Fit      -0.026697
 5257 Fit      -0.026467
 5258 Fit      -0.026432
 5259 Fit      -0.026437
 5260 Fit      -0.026406
 5261 Fit      -0.026316
 5262 Fit      -0.026177
 5263 Fit      -0.026018
 5264 Fit      -0.025876
 5265 Fit      -0.025785
 5266 Fit      -0.025766
 5267 Fit      -0.025823
 5268 Fit      -0.025943
 5269 Fit      -0.026097
 5270 Fit      -0.026251
 5271 Fit      -0.026368
 5272 Fit      -0.026429
 5273 Fit      -0.026436
 5274 Fit      -0.026437
 5275 Fit      -0.029057
 5276 Fit      -0.029825
 5277 Fit      -0.031360
 5278 Fit      -0.032574
 5279 Fit      -0.030468
 5280 Fit      -0.029372
 5281 Fit      -0.028839
 5282 Fit      -0.028574
 5283 Fit      -0.028402
 5284 Fit      -0.028241
 5285 Fit      -0.028066
 5286 Fit      -0.027887
 5287 Fit      -0.027734
 5288 Fit      -0.027636
 5289 Fit      -0.027616
 5290 Fit      -0.027677
 5291 Fit      -0.027805
 5292 Fit      -0.027975
 5293 Fit      -0.028155
 5294 Fit      -0.028323
 5295 Fit      -0.028483
 5296 Fit      -0.028686
 5297 Fit      -0.031278
 5298 Fit      -0.032330
 5299 Fit      -0.034173
 5300 Fit      -0.035519
 5301 Fit      -0.033127
 5302 Fit      -0.031729
 5303 Fit      -0.030939
 5304 Fit      -0.030470
 5305 Fit      -0.030145
 5306 Fit      -0.029881
 5307 Fit      -0.029651
 5308 Fit      -0.029468
 5309 Fit      -0.029355
 5310 Fit      -0.029331
 5311 Fit      -0.029401
 5312 Fit      -0.029552
 5313 Fit      -0.029761
 5314 Fit      -0.030008
 5315 Fit      -0.030297
 5316 Fit      -0.030677
 5317 Fit      -0.033165
 5318 Fit      -0.034463
 5319 Fit      -0.036546
 5320 Fit      -0.036546
 5321 Fit      -0.034463
 5322 Fit      -0.033165
 5323 Fit      -0.032367
 5324 Fit      -0.031842
 5325 Fit      -0.031463
 5326 Fit      -0.031184
 5327 Fit      -0.031005
 5328 Fit      -0.030943
 5329 Fit      -0.031005
 5330 Fit      -0.031184
 5331 Fit      -0.031463
 5332 Fit      -0.031842
 5333 Fit      -0.032367
 5334 Fit      -0.034679
 5335 Fit      -0.036212
 5336 Fit      -0.038446
 5337 Fit      -0.041059
 5338 Fit      -0.041059
 5339 Fit      -0.038446
 5340 Fit      -0.036212
 5341 Fit      -0.034679
 5342 Fit      -0.033707
 5343 Fit      -0.033086
 5344 Fit      -0.032692
 5345 Fit      -0.032493
 5346 Fit      -0.032493
 5347 Fit      -0.032692
 5348 Fit      -0.033086
 5349 Fit      -0.033707
 5350 Fit      -0.035787
 5351 Fit      -0.037456
 5352 Fit      -0.039349
 5353 Fit      -0.040261
 5354 Fit      -0.039349
 5355 Fit      -0.037456
 5356 Fit      -0.035787
 5357 Fit      -0.034703
 5358 Fit      -0.034105
 5359 Fit      -0.033911
 5360 Fit      -0.034105
 5361 Fit      -0.034703
 5362 Fit      -0.036463
 5363 Fit      -0.037956
 5364 Fit      -0.037956
 5365 Fit      -0.036463
 5366 Fit      -0.035429
 5367 Fit      -0.035429
 5368 Fit      -0.036690
 -----------------------------------------------------------------
 Leave Link  602 at Fri Aug 21 15:30:16 2015, MaxMem=  1572864000 cpu:         1.0

 Test job not archived.
 1\1\GINC-MIRA43\SP\RHF\6-31G(d)\C6H6N2O2\NAKANO\21-Aug-2015\0\\# HF/6-
 31G(d) iop(6/33=2,6/42=6,6/50=1) Pop=MK SCF=Tight Test\\PNA parameters
 \\0,1\C,0,0.,1.205317,-0.02424\C,0,0.,-1.205317,-0.02424\C,0,0.,1.2070
 54,1.350298\C,0,0.,-1.207054,1.350298\C,0,0.,0.,2.06329\C,0,0.,0.,-0.7
 10407\H,0,0.,2.127106,-0.570359\H,0,0.,-2.127106,-0.570359\H,0,0.,2.14
 0389,1.883969\H,0,0.,-2.140389,1.883969\N,0,0.,0.,-2.153144\N,0,0.,0.,
 3.422806\H,0,0.,0.848501,3.93699\H,0,0.,-0.848501,3.93699\O,0,0.,1.057
 387,-2.713677\O,0,0.,-1.057387,-2.713677\\Version=i7a2_14.0.4.211-G09R
 evD.01\State=1-A1\HF=-489.2068603\RMSD=6.987e-09\Dipole=0.,0.,2.947532
 8\Quadrupole=-2.7558445,3.0826221,-0.3267776,0.,0.,0.\PG=C02V [C2(N1C1
 C1N1),SGV(C4H6O2)]\\@


 I WANT TO KNOW HOW GOD CREATED THE WORLD.  I AM NOT INTERESTED IN
 THIS OR THAT PHENOMENON, IN THE SPECTRUM OF THIS OR THAT ELEMENT.
 I WANT TO KNOW HIS THOUGHTS, THE REST ARE DETAILS.
     -- ALBERT EINSTEIN
 Job cpu time:       0 days  0 hours  0 minutes 16.6 seconds.
 File lengths (MBytes):  RWF=     12 Int=      0 D2E=      0 Chk=      3 Scr=      1
 Normal termination of Gaussian 09 at Fri Aug 21 15:30:16 2015.
